    1C
    1UUSER                                                              
    1UDATE              30.may.2022                                     
    1UTIME              16:03:02                                        
    1UHOST                                                              
    1UPGM               CalculiX                                        
    1UVERSION           Version 2.17                             
    1UCOMPILETIME       Thu Jul 23 21:43:50 CEST 2020                    
    1UDIR                                                               
    1UDBN                                                               
    1UMAT    1MATERIALSOLID                                             
    2C                          2339                                     1
 -1         1 9.10000E+02 6.60000E+02 9.00000E+01
 -1         2 9.10000E+02-6.60000E+02 9.00000E+01
 -1         3-9.10000E+02 6.60000E+02 9.00000E+01
 -1         4-9.10000E+02-6.60000E+02 9.00000E+01
 -1         5 9.10000E+02 6.60000E+02 1.00000E+01
 -1         6 9.10000E+02-6.60000E+02 1.00000E+01
 -1         7-9.10000E+02 6.60000E+02 1.00000E+01
 -1         8-9.10000E+02-6.60000E+02 1.00000E+01
 -1         9 9.90000E+02-7.40000E+02 9.00000E+01
 -1        10 9.90000E+02-7.40000E+02 1.00000E+01
 -1        11-9.90000E+02-7.40000E+02 9.00000E+01
 -1        12-9.90000E+02-7.40000E+02 1.00000E+01
 -1        13 9.90000E+02 7.40000E+02 9.00000E+01
 -1        14 9.90000E+02 7.40000E+02 1.00000E+01
 -1        15-9.90000E+02 7.40000E+02 9.00000E+01
 -1        16-9.90000E+02 7.40000E+02 1.00000E+01
 -1        17 5.63100E+00 1.50000E+02 1.00000E+02
 -1        18-4.36900E+00 1.50000E+02 1.00000E+02
 -1        19-4.36900E+00 1.50000E+02-3.10000E-14
 -1        20 5.63100E+00 1.50000E+02-3.10000E-14
 -1        21-9.00000E+02-6.50000E+02 1.00000E+02
 -1        22 9.00000E+02-6.50000E+02 1.00000E+02
 -1        23 9.00000E+02 6.50000E+02 1.00000E+02
 -1        24 5.63100E+00 6.50000E+02 1.00000E+02
 -1        25-4.36900E+00 6.50000E+02 1.00000E+02
 -1        26-9.00000E+02 6.50000E+02 1.00000E+02
 -1        27-4.36900E+00 6.50000E+02-1.42000E-13
 -1        28 5.63100E+00 6.50000E+02-1.42000E-13
 -1        29-9.00000E+02 6.50000E+02 0.00000E+00
 -1        30-9.00000E+02-6.50000E+02 0.00000E+00
 -1        31 9.00000E+02 6.50000E+02 0.00000E+00
 -1        32 9.00000E+02-6.50000E+02 0.00000E+00
 -1        33 1.00000E+03-7.50000E+02 1.00000E+02
 -1        34 1.00000E+03-7.50000E+02 0.00000E+00
 -1        35-1.00000E+03-7.50000E+02 1.00000E+02
 -1        36-1.00000E+03-7.50000E+02 0.00000E+00
 -1        37 1.00000E+03 7.50000E+02 1.00000E+02
 -1        38 1.00000E+03 7.50000E+02 0.00000E+00
 -1        39-1.00000E+03 7.50000E+02 1.00000E+02
 -1        40-1.00000E+03 7.50000E+02 0.00000E+00
 -1        41-7.84420E+02 6.60000E+02 1.00000E+01
 -1        42-5.67840E+02 6.60000E+02 1.00000E+01
 -1        43-3.78560E+02 6.60000E+02 1.00000E+01
 -1        44-2.43880E+02 6.60000E+02 1.00000E+01
 -1        45-1.31040E+02 6.60000E+02 1.00000E+01
 -1        46-5.27800E+01 6.60000E+02 1.00000E+01
 -1        47 5.46000E+00 6.60000E+02 1.00000E+01
 -1        48 7.09800E+01 6.60000E+02 1.00000E+01
 -1        49 1.65620E+02 6.60000E+02 1.00000E+01
 -1        50 2.96660E+02 6.60000E+02 1.00000E+01
 -1        51 4.71380E+02 6.60000E+02 1.00000E+01
 -1        52 6.77040E+02 6.60000E+02 1.00000E+01
 -1        53 8.20820E+02 6.60000E+02 1.00000E+01
 -1        54-7.93520E+02 6.60000E+02 9.00000E+01
 -1        55-6.27900E+02 6.60000E+02 9.00000E+01
 -1        56-4.27700E+02 6.60000E+02 9.00000E+01
 -1        57-2.76640E+02 6.60000E+02 9.00000E+01
 -1        58-1.60160E+02 6.60000E+02 9.00000E+01
 -1        59-8.19000E+01 6.60000E+02 9.00000E+01
 -1        60-2.73000E+01 6.60000E+02 9.00000E+01
 -1        61 1.82000E+01 6.60000E+02 9.00000E+01
 -1        62 6.73400E+01 6.60000E+02 9.00000E+01
 -1        63 1.58340E+02 6.60000E+02 9.00000E+01
 -1        64 2.89380E+02 6.60000E+02 9.00000E+01
 -1        65 4.69560E+02 6.60000E+02 9.00000E+01
 -1        66 6.71580E+02 6.60000E+02 9.00000E+01
 -1        67 8.08080E+02 6.60000E+02 9.00000E+01
 -1        68 9.10000E+02 5.57040E+02 1.00000E+01
 -1        69 9.10000E+02 3.99960E+02 1.00000E+01
 -1        70 9.10000E+02 1.46520E+02 1.00000E+01
 -1        71 9.10000E+02-2.42880E+02 1.00000E+01
 -1        72 9.10000E+02-4.40880E+02 1.00000E+01
 -1        73 9.10000E+02-5.70240E+02 1.00000E+01
 -1        74 9.10000E+02 5.39880E+02 9.00000E+01
 -1        75 9.10000E+02 3.76200E+02 9.00000E+01
 -1        76 9.10000E+02 1.14840E+02 9.00000E+01
 -1        77 9.10000E+02-2.03280E+02 9.00000E+01
 -1        78 9.10000E+02-4.15800E+02 9.00000E+01
 -1        79 9.10000E+02-5.57040E+02 9.00000E+01
 -1        80 8.17180E+02-6.60000E+02 1.00000E+01
 -1        81 6.69760E+02-6.60000E+02 1.00000E+01
 -1        82 4.58640E+02-6.60000E+02 1.00000E+01
 -1        83 7.28000E+01-6.60000E+02 1.00000E+01
 -1        84-3.02120E+02-6.60000E+02 1.00000E+01
 -1        85-5.66020E+02-6.60000E+02 1.00000E+01
 -1        86-7.86240E+02-6.60000E+02 1.00000E+01
 -1        87 8.13540E+02-6.60000E+02 9.00000E+01
 -1        88 6.86140E+02-6.60000E+02 9.00000E+01
 -1        89 5.07780E+02-6.60000E+02 9.00000E+01
 -1        90 2.27500E+02-6.60000E+02 9.00000E+01
 -1        91-1.54700E+02-6.60000E+02 9.00000E+01
 -1        92-4.47720E+02-6.60000E+02 9.00000E+01
 -1        93-6.51560E+02-6.60000E+02 9.00000E+01
 -1        94-8.04440E+02-6.60000E+02 9.00000E+01
 -1        95-9.10000E+02-5.68920E+02 1.00000E+01
 -1        96-9.10000E+02-4.38240E+02 1.00000E+01
 -1        97-9.10000E+02-2.38920E+02 1.00000E+01
 -1        98-9.10000E+02 1.53120E+02 1.00000E+01
 -1        99-9.10000E+02 4.03920E+02 1.00000E+01
 -1       100-9.10000E+02 5.58360E+02 1.00000E+01
 -1       101-9.10000E+02-5.54400E+02 9.00000E+01
 -1       102-9.10000E+02-4.13160E+02 9.00000E+01
 -1       103-9.10000E+02-1.99320E+02 9.00000E+01
 -1       104-9.10000E+02 1.20120E+02 9.00000E+01
 -1       105-9.10000E+02 3.78840E+02 9.00000E+01
 -1       106-9.10000E+02 5.42520E+02 9.00000E+01
 -1       107 8.91000E+02-7.40000E+02 1.00000E+01
 -1       108 7.52400E+02-7.40000E+02 1.00000E+01
 -1       109 5.64300E+02-7.40000E+02 1.00000E+01
 -1       110 2.65320E+02-7.40000E+02 1.00000E+01
 -1       111-9.50400E+01-7.40000E+02 1.00000E+01
 -1       112-4.15800E+02-7.40000E+02 1.00000E+01
 -1       113-6.39540E+02-7.40000E+02 1.00000E+01
 -1       114-7.93980E+02-7.40000E+02 1.00000E+01
 -1       115-9.08820E+02-7.40000E+02 1.00000E+01
 -1       116 8.69220E+02-7.40000E+02 9.00000E+01
 -1       117 7.04880E+02-7.40000E+02 9.00000E+01
 -1       118 4.65300E+02-7.40000E+02 9.00000E+01
 -1       119 1.26720E+02-7.40000E+02 9.00000E+01
 -1       120-2.77200E+02-7.40000E+02 9.00000E+01
 -1       121-5.58360E+02-7.40000E+02 9.00000E+01
 -1       122-7.54380E+02-7.40000E+02 9.00000E+01
 -1       123-8.91000E+02-7.40000E+02 9.00000E+01
 -1       124-8.92980E+02 7.40000E+02 9.00000E+01
 -1       125-7.62300E+02 7.40000E+02 9.00000E+01
 -1       126-5.84100E+02 7.40000E+02 9.00000E+01
 -1       127-3.92040E+02 7.40000E+02 9.00000E+01
 -1       128-2.51460E+02 7.40000E+02 9.00000E+01
 -1       129-1.32660E+02 7.40000E+02 9.00000E+01
 -1       130-5.14800E+01 7.40000E+02 9.00000E+01
 -1       131 1.98000E+01 7.40000E+02 9.00000E+01
 -1       132 1.12860E+02 7.40000E+02 9.00000E+01
 -1       133 2.31660E+02 7.40000E+02 9.00000E+01
 -1       134 3.92040E+02 7.40000E+02 9.00000E+01
 -1       135 6.01920E+02 7.40000E+02 9.00000E+01
 -1       136 7.60320E+02 7.40000E+02 9.00000E+01
 -1       137 8.77140E+02 7.40000E+02 9.00000E+01
 -1       138 9.90000E+02 6.36400E+02 9.00000E+01
 -1       139 9.90000E+02 4.85440E+02 9.00000E+01
 -1       140 9.90000E+02 2.67880E+02 9.00000E+01
 -1       141 9.90000E+02-1.62800E+01 9.00000E+01
 -1       142 9.90000E+02-2.88600E+02 9.00000E+01
 -1       143 9.90000E+02-4.91360E+02 9.00000E+01
 -1       144 9.90000E+02-6.34920E+02 9.00000E+01
 -1       145-9.90000E+02-6.31960E+02 9.00000E+01
 -1       146-9.90000E+02-4.88400E+02 9.00000E+01
 -1       147-9.90000E+02-2.84160E+02 9.00000E+01
 -1       148-9.90000E+02-1.18400E+01 9.00000E+01
 -1       149-9.90000E+02 2.72320E+02 9.00000E+01
 -1       150-9.90000E+02 4.88400E+02 9.00000E+01
 -1       151-9.90000E+02 6.39360E+02 9.00000E+01
 -1       152-8.92980E+02 7.40000E+02 1.00000E+01
 -1       153-7.32600E+02 7.40000E+02 1.00000E+01
 -1       154-5.00940E+02 7.40000E+02 1.00000E+01
 -1       155-3.28680E+02 7.40000E+02 1.00000E+01
 -1       156-1.99980E+02 7.40000E+02 1.00000E+01
 -1       157-7.92000E+01 7.40000E+02 1.00000E+01
 -1       158 1.98000E+00 7.40000E+02 1.00000E+01
 -1       159 9.10800E+01 7.40000E+02 1.00000E+01
 -1       160 2.11860E+02 7.40000E+02 1.00000E+01
 -1       161 3.66300E+02 7.40000E+02 1.00000E+01
 -1       162 5.72220E+02 7.40000E+02 1.00000E+01
 -1       163 7.68240E+02 7.40000E+02 1.00000E+01
 -1       164 8.81100E+02 7.40000E+02 1.00000E+01
 -1       165 9.90000E+02 6.39360E+02 1.00000E+01
 -1       166 9.90000E+02 4.91360E+02 1.00000E+01
 -1       167 9.90000E+02 2.96000E+02 1.00000E+01
 -1       168 9.90000E+02-4.73600E+01 1.00000E+01
 -1       169 9.90000E+02-3.28560E+02 1.00000E+01
 -1       170 9.90000E+02-5.10600E+02 1.00000E+01
 -1       171 9.90000E+02-6.45280E+02 1.00000E+01
 -1       172-9.90000E+02-6.42320E+02 1.00000E+01
 -1       173-9.90000E+02-5.37240E+02 1.00000E+01
 -1       174-9.90000E+02-4.02560E+02 1.00000E+01
 -1       175-9.90000E+02-2.17560E+02 1.00000E+01
 -1       176-9.90000E+02 1.80560E+02 1.00000E+01
 -1       177-9.90000E+02 3.98120E+02 1.00000E+01
 -1       178-9.90000E+02 5.44640E+02 1.00000E+01
 -1       179-9.90000E+02 6.54160E+02 1.00000E+01
 -1       180 5.63100E+00 1.50000E+02 7.03000E+01
 -1       181 5.63100E+00 1.50000E+02 3.22000E+01
 -1       182-4.36900E+00 1.50000E+02 3.24000E+01
 -1       183-4.36900E+00 1.50000E+02 7.05000E+01
 -1       184-4.36900E+00 6.16500E+02-1.34740E-13
 -1       185-4.36900E+00 5.66500E+02-1.23740E-13
 -1       186-4.36900E+00 5.00500E+02-1.09220E-13
 -1       187-4.36900E+00 4.03500E+02-8.78800E-14
 -1       188-4.36900E+00 2.98500E+02-6.47800E-14
 -1       189-4.36900E+00 2.26000E+02-4.88300E-14
 -1       190-4.36900E+00 1.81000E+02-3.89300E-14
 -1       191-4.36900E+00 6.16000E+02 1.00000E+02
 -1       192-4.36900E+00 5.66000E+02 1.00000E+02
 -1       193-4.36900E+00 4.99000E+02 1.00000E+02
 -1       194-4.36900E+00 3.99500E+02 1.00000E+02
 -1       195-4.36900E+00 3.01000E+02 1.00000E+02
 -1       196-4.36900E+00 2.27000E+02 1.00000E+02
 -1       197-4.36900E+00 1.81500E+02 1.00000E+02
 -1       198-4.36900E+00 6.50000E+02 3.24000E+01
 -1       199-4.36900E+00 6.50000E+02 7.05000E+01
 -1       200 5.63100E+00 6.16000E+02 1.00000E+02
 -1       201 5.63100E+00 5.66000E+02 1.00000E+02
 -1       202 5.63100E+00 4.99000E+02 1.00000E+02
 -1       203 5.63100E+00 3.99500E+02 1.00000E+02
 -1       204 5.63100E+00 3.01000E+02 1.00000E+02
 -1       205 5.63100E+00 2.27000E+02 1.00000E+02
 -1       206 5.63100E+00 1.81500E+02 1.00000E+02
 -1       207 5.63100E+00 6.16500E+02-1.34740E-13
 -1       208 5.63100E+00 5.66500E+02-1.23740E-13
 -1       209 5.63100E+00 5.00500E+02-1.09220E-13
 -1       210 5.63100E+00 4.03500E+02-8.78800E-14
 -1       211 5.63100E+00 2.98500E+02-6.47800E-14
 -1       212 5.63100E+00 2.26000E+02-4.88300E-14
 -1       213 5.63100E+00 1.81000E+02-3.89300E-14
 -1       214 5.63100E+00 6.50000E+02 7.03000E+01
 -1       215 5.63100E+00 6.50000E+02 3.22000E+01
 -1       216-7.76403E+02 6.50000E+02 1.00000E+02
 -1       217-6.11607E+02 6.50000E+02 1.00000E+02
 -1       218-4.09194E+02 6.50000E+02 1.00000E+02
 -1       219-2.69476E+02 6.50000E+02 1.00000E+02
 -1       220-1.70061E+02 6.50000E+02 1.00000E+02
 -1       221-9.57234E+01 6.50000E+02 1.00000E+02
 -1       222-4.28811E+01 6.50000E+02 1.00000E+02
 -1       223-4.37768E+01 6.50000E+02 0.00000E+00
 -1       224-9.57234E+01 6.50000E+02 0.00000E+00
 -1       225-1.69165E+02 6.50000E+02 0.00000E+00
 -1       226-2.74850E+02 6.50000E+02 0.00000E+00
 -1       227-4.16359E+02 6.50000E+02 0.00000E+00
 -1       228-6.20563E+02 6.50000E+02 0.00000E+00
 -1       229-7.79090E+02 6.50000E+02 0.00000E+00
 -1       230 3.96170E+01 6.50000E+02 1.00000E+02
 -1       231 9.77510E+01 6.50000E+02 1.00000E+02
 -1       232 2.03287E+02 6.50000E+02 1.00000E+02
 -1       233 3.44597E+02 6.50000E+02 1.00000E+02
 -1       234 5.69978E+02 6.50000E+02 1.00000E+02
 -1       235 7.60478E+02 6.50000E+02 1.00000E+02
 -1       236 7.89993E+02 6.50000E+02 0.00000E+00
 -1       237 6.50471E+02 6.50000E+02 0.00000E+00
 -1       238 4.59970E+02 6.50000E+02 0.00000E+00
 -1       239 3.16871E+02 6.50000E+02 0.00000E+00
 -1       240 2.10441E+02 6.50000E+02 0.00000E+00
 -1       241 1.36209E+02 6.50000E+02 0.00000E+00
 -1       242 8.16524E+01 6.50000E+02 0.00000E+00
 -1       243 3.78283E+01 6.50000E+02 0.00000E+00
 -1       244-9.00000E+02-5.43400E+02 1.00000E+02
 -1       245-9.00000E+02-4.01700E+02 1.00000E+02
 -1       246-9.00000E+02-1.91100E+02 1.00000E+02
 -1       247-9.00000E+02 1.18300E+02 1.00000E+02
 -1       248-9.00000E+02 3.73100E+02 1.00000E+02
 -1       249-9.00000E+02 5.33000E+02 1.00000E+02
 -1       250-9.00000E+02 5.42100E+02 0.00000E+00
 -1       251-9.00000E+02 3.91300E+02 0.00000E+00
 -1       252-9.00000E+02 1.54700E+02 0.00000E+00
 -1       253-9.00000E+02-2.24900E+02 0.00000E+00
 -1       254-9.00000E+02-4.19900E+02 0.00000E+00
 -1       255-9.00000E+02-5.47300E+02 0.00000E+00
 -1       256 7.88400E+02-6.50000E+02 1.00000E+02
 -1       257 6.37200E+02-6.50000E+02 1.00000E+02
 -1       258 4.03200E+02-6.50000E+02 1.00000E+02
 -1       259 5.04000E+01-6.50000E+02 1.00000E+02
 -1       260-3.38400E+02-6.50000E+02 1.00000E+02
 -1       261-5.94000E+02-6.50000E+02 1.00000E+02
 -1       262-7.74000E+02-6.50000E+02 1.00000E+02
 -1       263-7.59600E+02-6.50000E+02 0.00000E+00
 -1       264-5.49000E+02-6.50000E+02 0.00000E+00
 -1       265-2.95200E+02-6.50000E+02 0.00000E+00
 -1       266 6.48000E+01-6.50000E+02 0.00000E+00
 -1       267 4.32000E+02-6.50000E+02 0.00000E+00
 -1       268 6.44400E+02-6.50000E+02 0.00000E+00
 -1       269 7.99200E+02-6.50000E+02 0.00000E+00
 -1       270 9.00000E+02 5.30400E+02 1.00000E+02
 -1       271 9.00000E+02 3.70500E+02 1.00000E+02
 -1       272 9.00000E+02 1.14400E+02 1.00000E+02
 -1       273 9.00000E+02-1.95000E+02 1.00000E+02
 -1       274 9.00000E+02-4.04300E+02 1.00000E+02
 -1       275 9.00000E+02-5.46000E+02 1.00000E+02
 -1       276 9.00000E+02-5.46000E+02 0.00000E+00
 -1       277 9.00000E+02-4.17300E+02 0.00000E+00
 -1       278 9.00000E+02-2.22300E+02 0.00000E+00
 -1       279 9.00000E+02 1.59900E+02 0.00000E+00
 -1       280 9.00000E+02 3.93900E+02 0.00000E+00
 -1       281 9.00000E+02 5.44700E+02 0.00000E+00
 -1       282 8.82000E+02-7.50000E+02 0.00000E+00
 -1       283 7.22000E+02-7.50000E+02 0.00000E+00
 -1       284 5.08000E+02-7.50000E+02 0.00000E+00
 -1       285 1.38000E+02-7.50000E+02 0.00000E+00
 -1       286-2.58000E+02-7.50000E+02 0.00000E+00
 -1       287-5.44000E+02-7.50000E+02 0.00000E+00
 -1       288-7.46000E+02-7.50000E+02 0.00000E+00
 -1       289-8.84000E+02-7.50000E+02 0.00000E+00
 -1       290 8.94000E+02-7.50000E+02 1.00000E+02
 -1       291 7.56000E+02-7.50000E+02 1.00000E+02
 -1       292 5.54000E+02-7.50000E+02 1.00000E+02
 -1       293 2.84000E+02-7.50000E+02 1.00000E+02
 -1       294-8.00000E+01-7.50000E+02 1.00000E+02
 -1       295-4.10000E+02-7.50000E+02 1.00000E+02
 -1       296-6.38000E+02-7.50000E+02 1.00000E+02
 -1       297-7.96000E+02-7.50000E+02 1.00000E+02
 -1       298-9.14000E+02-7.50000E+02 1.00000E+02
 -1       299-9.12000E+02 7.50000E+02 1.00000E+02
 -1       300-7.94000E+02 7.50000E+02 1.00000E+02
 -1       301-6.36000E+02 7.50000E+02 1.00000E+02
 -1       302-4.46000E+02 7.50000E+02 1.00000E+02
 -1       303-2.94000E+02 7.50000E+02 1.00000E+02
 -1       304-1.80000E+02 7.50000E+02 1.00000E+02
 -1       305-8.40000E+01 7.50000E+02 1.00000E+02
 -1       306-1.60000E+01 7.50000E+02 1.00000E+02
 -1       307 5.80000E+01 7.50000E+02 1.00000E+02
 -1       308 1.60000E+02 7.50000E+02 1.00000E+02
 -1       309 2.84000E+02 7.50000E+02 1.00000E+02
 -1       310 4.50000E+02 7.50000E+02 1.00000E+02
 -1       311 6.50000E+02 7.50000E+02 1.00000E+02
 -1       312 7.88000E+02 7.50000E+02 1.00000E+02
 -1       313 8.98000E+02 7.50000E+02 1.00000E+02
 -1       314-1.00000E+03-6.40500E+02 1.00000E+02
 -1       315-1.00000E+03-4.99500E+02 1.00000E+02
 -1       316-1.00000E+03-2.95500E+02 1.00000E+02
 -1       317-1.00000E+03-2.55000E+01 1.00000E+02
 -1       318-1.00000E+03 2.64000E+02 1.00000E+02
 -1       319-1.00000E+03 4.83000E+02 1.00000E+02
 -1       320-1.00000E+03 6.36000E+02 1.00000E+02
 -1       321 1.00000E+03 6.51000E+02 1.00000E+02
 -1       322 1.00000E+03 4.96500E+02 1.00000E+02
 -1       323 1.00000E+03 2.76000E+02 1.00000E+02
 -1       324 1.00000E+03-1.65000E+01 1.00000E+02
 -1       325 1.00000E+03-2.95500E+02 1.00000E+02
 -1       326 1.00000E+03-5.02500E+02 1.00000E+02
 -1       327 1.00000E+03-6.45000E+02 1.00000E+02
 -1       328-8.90000E+02 7.50000E+02 0.00000E+00
 -1       329-7.34000E+02 7.50000E+02 0.00000E+00
 -1       330-5.08000E+02 7.50000E+02 0.00000E+00
 -1       331-3.38000E+02 7.50000E+02 0.00000E+00
 -1       332-2.10000E+02 7.50000E+02 0.00000E+00
 -1       333-1.04000E+02 7.50000E+02 0.00000E+00
 -1       334-3.00000E+01 7.50000E+02 0.00000E+00
 -1       335 4.20000E+01 7.50000E+02 0.00000E+00
 -1       336 1.20000E+02 7.50000E+02 0.00000E+00
 -1       337 2.36000E+02 7.50000E+02 0.00000E+00
 -1       338 3.98000E+02 7.50000E+02 0.00000E+00
 -1       339 6.04000E+02 7.50000E+02 0.00000E+00
 -1       340 7.84000E+02 7.50000E+02 0.00000E+00
 -1       341 8.92000E+02 7.50000E+02 0.00000E+00
 -1       342-1.00000E+03-6.46500E+02 0.00000E+00
 -1       343-1.00000E+03-5.40000E+02 0.00000E+00
 -1       344-1.00000E+03-4.06500E+02 0.00000E+00
 -1       345-1.00000E+03-2.23500E+02 0.00000E+00
 -1       346-1.00000E+03 1.63500E+02 0.00000E+00
 -1       347-1.00000E+03 3.90000E+02 0.00000E+00
 -1       348-1.00000E+03 5.38500E+02 0.00000E+00
 -1       349-1.00000E+03 6.48000E+02 0.00000E+00
 -1       350 1.00000E+03 6.37500E+02 0.00000E+00
 -1       351 1.00000E+03 4.90500E+02 0.00000E+00
 -1       352 1.00000E+03 2.95500E+02 0.00000E+00
 -1       353 1.00000E+03-4.95000E+01 0.00000E+00
 -1       354 1.00000E+03-3.28500E+02 0.00000E+00
 -1       355 1.00000E+03-5.11500E+02 0.00000E+00
 -1       356 1.00000E+03-6.45000E+02 0.00000E+00
 -1       357 4.27700E+01 6.60000E+02 5.00928E+01
 -1       358 4.27700E+01 6.99907E+02 9.00000E+01
 -1       359-3.75000E+00 7.00000E+02 9.00000E+01
 -1       360-9.22342E+02-1.24654E+02 1.00000E+01
 -1       361-4.36900E+00 5.91500E+02 4.68708E+01
 -1       362-4.36900E+00 5.25500E+02 4.68708E+01
 -1       363-4.36900E+00 1.89907E+02 5.14500E+01
 -1       364 5.63100E+00 5.91000E+02 5.31292E+01
 -1       365 5.63100E+00 5.24000E+02 5.31292E+01
 -1       366 5.63100E+00 1.89907E+02 5.12500E+01
 -1       367 6.30996E-01 5.96979E+02 1.00000E+02
 -1       368 6.30996E-01 2.00521E+02 1.00000E+02
 -1       369 6.30996E-01 5.38938E+02 1.00000E+02
 -1       370 6.30996E-01 2.54062E+02 1.00000E+02
 -1       371 6.30996E-01 4.63897E+02 1.00000E+02
 -1       372 6.30996E-01 3.44144E+02 1.00000E+02
 -1       373-6.93023E+01 6.50000E+02 5.31292E+01
 -1       374 6.30996E-01 5.97479E+02-1.30555E-13
 -1       375 6.30996E-01 2.00021E+02-4.31145E-14
 -1       376 6.30996E-01 5.39438E+02-1.17786E-13
 -1       377 6.30996E-01 4.65397E+02-1.01497E-13
 -1       378 6.30996E-01 3.41644E+02-7.42717E-14
 -1       379 6.86840E+01 6.50000E+02 5.35760E+01
 -1       380-2.36251E+01 6.82944E+02 1.00000E+02
 -1       381 2.26240E+01 6.82944E+02 1.00000E+02
 -1       382-5.00000E+01 6.89202E+02 1.00000E+02
 -1       383 6.65873E+01 6.84766E+02 1.00000E+02
 -1       384 6.30996E-01 6.75980E+02 1.00000E+02
 -1       385 1.08931E+02 6.96871E+02 0.00000E+00
 -1       386 6.51065E+01 6.96871E+02 0.00000E+00
 -1       387 3.29093E+01 6.96871E+02 0.00000E+00
 -1       388-2.40729E+01 6.82944E+02 0.00000E+00
 -1       389-7.60195E+01 6.82944E+02 0.00000E+00
 -1       390 6.30996E-01 6.75980E+02 0.00000E+00
 -1       391-9.48499E+02-1.16996E+02 0.00000E+00
 -1       392-9.69014E+02-5.69695E+01 0.00000E+00
 -1       393 9.42096E+02 6.93423E+02 4.56408E+00
 -1       394 9.40855E+02 7.45056E+02 4.74527E+01
 -1       395-2.39446E+00 6.54818E+02 5.34049E+01
 -1       396 3.87661E+00 4.46214E+02 2.90012E+01
 -1       397 1.77410E-01 3.41823E+02 5.09450E+01
 -1       398-9.10000E+02 6.60000E+02 5.00000E+01
 -1       399 9.10000E+02 6.60000E+02 5.00000E+01
 -1       400-8.47210E+02 6.60000E+02 1.00000E+01
 -1       401-6.76130E+02 6.60000E+02 1.00000E+01
 -1       402-4.73200E+02 6.60000E+02 1.00000E+01
 -1       403-3.11220E+02 6.60000E+02 1.00000E+01
 -1       404-1.87460E+02 6.60000E+02 1.00000E+01
 -1       405-9.19100E+01 6.60000E+02 1.00000E+01
 -1       406-2.36600E+01 6.60000E+02 1.00000E+01
 -1       407 3.82200E+01 6.60000E+02 1.00000E+01
 -1       408 1.18300E+02 6.60000E+02 1.00000E+01
 -1       409 2.31140E+02 6.60000E+02 1.00000E+01
 -1       410 3.84020E+02 6.60000E+02 1.00000E+01
 -1       411 5.74210E+02 6.60000E+02 1.00000E+01
 -1       412 7.48930E+02 6.60000E+02 1.00000E+01
 -1       413 8.65410E+02 6.60000E+02 1.00000E+01
 -1       414-8.51760E+02 6.60000E+02 9.00000E+01
 -1       415-7.10710E+02 6.60000E+02 9.00000E+01
 -1       416-5.27800E+02 6.60000E+02 9.00000E+01
 -1       417-3.52170E+02 6.60000E+02 9.00000E+01
 -1       418-2.18400E+02 6.60000E+02 9.00000E+01
 -1       419-1.21030E+02 6.60000E+02 9.00000E+01
 -1       420-5.46000E+01 6.60000E+02 9.00000E+01
 -1       421-4.55000E+00 6.60000E+02 9.00000E+01
 -1       422 4.27700E+01 6.60000E+02 9.00000E+01
 -1       423 1.12840E+02 6.60000E+02 9.00000E+01
 -1       424 2.23860E+02 6.60000E+02 9.00000E+01
 -1       425 3.79470E+02 6.60000E+02 9.00000E+01
 -1       426 5.70570E+02 6.60000E+02 9.00000E+01
 -1       427 7.39830E+02 6.60000E+02 9.00000E+01
 -1       428 8.59040E+02 6.60000E+02 9.00000E+01
 -1       429 9.10000E+02-6.60000E+02 5.00000E+01
 -1       430 9.10000E+02 6.08520E+02 1.00000E+01
 -1       431 9.10000E+02 4.78500E+02 1.00000E+01
 -1       432 9.10000E+02 2.73240E+02 1.00000E+01
 -1       433 9.10000E+02-4.81800E+01 1.00000E+01
 -1       434 9.10000E+02-3.41880E+02 1.00000E+01
 -1       435 9.10000E+02-5.05560E+02 1.00000E+01
 -1       436 9.10000E+02-6.15120E+02 1.00000E+01
 -1       437 9.10000E+02 5.99940E+02 9.00000E+01
 -1       438 9.10000E+02 4.58040E+02 9.00000E+01
 -1       439 9.10000E+02 2.45520E+02 9.00000E+01
 -1       440 9.10000E+02-4.42200E+01 9.00000E+01
 -1       441 9.10000E+02-3.09540E+02 9.00000E+01
 -1       442 9.10000E+02-4.86420E+02 9.00000E+01
 -1       443 9.10000E+02-6.08520E+02 9.00000E+01
 -1       444-9.10000E+02-6.60000E+02 5.00000E+01
 -1       445 8.63590E+02-6.60000E+02 1.00000E+01
 -1       446 7.43470E+02-6.60000E+02 1.00000E+01
 -1       447 5.64200E+02-6.60000E+02 1.00000E+01
 -1       448 2.65720E+02-6.60000E+02 1.00000E+01
 -1       449-1.14660E+02-6.60000E+02 1.00000E+01
 -1       450-4.34070E+02-6.60000E+02 1.00000E+01
 -1       451-6.76130E+02-6.60000E+02 1.00000E+01
 -1       452-8.48120E+02-6.60000E+02 1.00000E+01
 -1       453 8.61770E+02-6.60000E+02 9.00000E+01
 -1       454 7.49840E+02-6.60000E+02 9.00000E+01
 -1       455 5.96960E+02-6.60000E+02 9.00000E+01
 -1       456 3.67640E+02-6.60000E+02 9.00000E+01
 -1       457 3.64000E+01-6.60000E+02 9.00000E+01
 -1       458-3.01210E+02-6.60000E+02 9.00000E+01
 -1       459-5.49640E+02-6.60000E+02 9.00000E+01
 -1       460-7.28000E+02-6.60000E+02 9.00000E+01
 -1       461-8.57220E+02-6.60000E+02 9.00000E+01
 -1       462-9.10000E+02-6.14460E+02 1.00000E+01
 -1       463-9.10000E+02-5.03580E+02 1.00000E+01
 -1       464-9.10000E+02-3.38580E+02 1.00000E+01
 -1       465-9.10000E+02-4.29000E+01 1.00000E+01
 -1       466-9.10000E+02 2.78520E+02 1.00000E+01
 -1       467-9.10000E+02 4.81140E+02 1.00000E+01
 -1       468-9.10000E+02 6.09180E+02 1.00000E+01
 -1       469-9.10000E+02-6.07200E+02 9.00000E+01
 -1       470-9.10000E+02-4.83780E+02 9.00000E+01
 -1       471-9.10000E+02-3.06240E+02 9.00000E+01
 -1       472-9.10000E+02-3.96000E+01 9.00000E+01
 -1       473-9.10000E+02 2.49480E+02 9.00000E+01
 -1       474-9.10000E+02 4.60680E+02 9.00000E+01
 -1       475-9.10000E+02 6.01260E+02 9.00000E+01
 -1       476 9.90000E+02-7.40000E+02 5.00000E+01
 -1       477-9.90000E+02-7.40000E+02 5.00000E+01
 -1       478 9.40500E+02-7.40000E+02 1.00000E+01
 -1       479 8.21700E+02-7.40000E+02 1.00000E+01
 -1       480 6.58350E+02-7.40000E+02 1.00000E+01
 -1       481 4.14810E+02-7.40000E+02 1.00000E+01
 -1       482 8.51400E+01-7.40000E+02 1.00000E+01
 -1       483-2.55420E+02-7.40000E+02 1.00000E+01
 -1       484-5.27670E+02-7.40000E+02 1.00000E+01
 -1       485-7.16760E+02-7.40000E+02 1.00000E+01
 -1       486-8.51400E+02-7.40000E+02 1.00000E+01
 -1       487-9.49410E+02-7.40000E+02 1.00000E+01
 -1       488 9.29610E+02-7.40000E+02 9.00000E+01
 -1       489 7.87050E+02-7.40000E+02 9.00000E+01
 -1       490 5.85090E+02-7.40000E+02 9.00000E+01
 -1       491 2.96010E+02-7.40000E+02 9.00000E+01
 -1       492-7.52400E+01-7.40000E+02 9.00000E+01
 -1       493-4.17780E+02-7.40000E+02 9.00000E+01
 -1       494-6.56370E+02-7.40000E+02 9.00000E+01
 -1       495-8.22690E+02-7.40000E+02 9.00000E+01
 -1       496-9.40500E+02-7.40000E+02 9.00000E+01
 -1       497-9.41490E+02 7.40000E+02 9.00000E+01
 -1       498-8.27640E+02 7.40000E+02 9.00000E+01
 -1       499-6.73200E+02 7.40000E+02 9.00000E+01
 -1       500-4.88070E+02 7.40000E+02 9.00000E+01
 -1       501-3.21750E+02 7.40000E+02 9.00000E+01
 -1       502-1.92060E+02 7.40000E+02 9.00000E+01
 -1       503-9.20700E+01 7.40000E+02 9.00000E+01
 -1       504-1.58400E+01 7.40000E+02 9.00000E+01
 -1       505 6.63300E+01 7.40000E+02 9.00000E+01
 -1       506 1.72260E+02 7.40000E+02 9.00000E+01
 -1       507 3.11850E+02 7.40000E+02 9.00000E+01
 -1       508 4.96980E+02 7.40000E+02 9.00000E+01
 -1       509 6.81120E+02 7.40000E+02 9.00000E+01
 -1       510 8.18730E+02 7.40000E+02 9.00000E+01
 -1       511 9.33570E+02 7.40000E+02 9.00000E+01
 -1       512 9.90000E+02 6.88200E+02 9.00000E+01
 -1       513 9.90000E+02 5.60920E+02 9.00000E+01
 -1       514 9.90000E+02 3.76660E+02 9.00000E+01
 -1       515 9.90000E+02 1.25800E+02 9.00000E+01
 -1       516 9.90000E+02-1.52440E+02 9.00000E+01
 -1       517 9.90000E+02-3.89980E+02 9.00000E+01
 -1       518 9.90000E+02-5.63140E+02 9.00000E+01
 -1       519 9.90000E+02-6.87460E+02 9.00000E+01
 -1       520-9.90000E+02-6.85980E+02 9.00000E+01
 -1       521-9.90000E+02-5.60180E+02 9.00000E+01
 -1       522-9.90000E+02-3.86280E+02 9.00000E+01
 -1       523-9.90000E+02-1.48000E+02 9.00000E+01
 -1       524-9.90000E+02 1.30240E+02 9.00000E+01
 -1       525-9.90000E+02 3.80360E+02 9.00000E+01
 -1       526-9.90000E+02 5.63880E+02 9.00000E+01
 -1       527-9.90000E+02 6.89680E+02 9.00000E+01
 -1       528-9.41490E+02 7.40000E+02 1.00000E+01
 -1       529-8.12790E+02 7.40000E+02 1.00000E+01
 -1       530-6.16770E+02 7.40000E+02 1.00000E+01
 -1       531-4.14810E+02 7.40000E+02 1.00000E+01
 -1       532-2.64330E+02 7.40000E+02 1.00000E+01
 -1       533-1.39590E+02 7.40000E+02 1.00000E+01
 -1       534-3.86100E+01 7.40000E+02 1.00000E+01
 -1       535 4.65300E+01 7.40000E+02 1.00000E+01
 -1       536 1.51470E+02 7.40000E+02 1.00000E+01
 -1       537 2.89080E+02 7.40000E+02 1.00000E+01
 -1       538 4.69260E+02 7.40000E+02 1.00000E+01
 -1       539 6.70230E+02 7.40000E+02 1.00000E+01
 -1       540 8.24670E+02 7.40000E+02 1.00000E+01
 -1       541 9.35550E+02 7.40000E+02 1.00000E+01
 -1       542 9.90000E+02 6.89680E+02 1.00000E+01
 -1       543 9.90000E+02 5.65360E+02 1.00000E+01
 -1       544 9.90000E+02 3.93680E+02 1.00000E+01
 -1       545 9.90000E+02 1.24320E+02 1.00000E+01
 -1       546 9.90000E+02-1.87960E+02 1.00000E+01
 -1       547 9.90000E+02-4.19580E+02 1.00000E+01
 -1       548 9.90000E+02-5.77940E+02 1.00000E+01
 -1       549 9.90000E+02-6.92640E+02 1.00000E+01
 -1       550-9.90000E+02-6.91160E+02 1.00000E+01
 -1       551-9.90000E+02-5.89780E+02 1.00000E+01
 -1       552-9.90000E+02-4.69900E+02 1.00000E+01
 -1       553-9.90000E+02-3.10060E+02 1.00000E+01
 -1       554-9.90000E+02-1.85000E+01 1.00000E+01
 -1       555-9.90000E+02 2.89340E+02 1.00000E+01
 -1       556-9.90000E+02 4.71380E+02 1.00000E+01
 -1       557-9.90000E+02 5.99400E+02 1.00000E+01
 -1       558-9.90000E+02 6.97080E+02 1.00000E+01
 -1       559 9.90000E+02 7.40000E+02 5.00000E+01
 -1       560-9.90000E+02 7.40000E+02 5.00000E+01
 -1       561 6.30996E-01 1.50000E+02 1.00000E+02
 -1       562 5.63100E+00 1.50000E+02 8.51500E+01
 -1       563 5.63100E+00 1.50000E+02 5.12500E+01
 -1       564 5.63100E+00 1.50000E+02 1.61000E+01
 -1       565 6.30996E-01 1.50000E+02-3.11100E-14
 -1       566-4.36900E+00 1.50000E+02 1.62000E+01
 -1       567-4.36900E+00 1.50000E+02 5.14500E+01
 -1       568-4.36900E+00 1.50000E+02 8.52500E+01
 -1       569-4.36900E+00 6.33250E+02-1.38425E-13
 -1       570-4.36900E+00 5.91500E+02-1.29240E-13
 -1       571-4.36900E+00 5.33500E+02-1.16480E-13
 -1       572-4.36900E+00 4.52000E+02-9.85500E-14
 -1       573-4.36900E+00 3.51000E+02-7.63300E-14
 -1       574-4.36900E+00 2.62250E+02-5.68050E-14
 -1       575-4.36900E+00 2.03500E+02-4.38800E-14
 -1       576-4.36900E+00 1.65500E+02-3.55200E-14
 -1       577-4.36900E+00 6.33000E+02 1.00000E+02
 -1       578-4.36900E+00 5.91000E+02 1.00000E+02
 -1       579-4.36900E+00 5.32500E+02 1.00000E+02
 -1       580-4.36900E+00 4.49250E+02 1.00000E+02
 -1       581-4.36900E+00 3.50250E+02 1.00000E+02
 -1       582-4.36900E+00 2.64000E+02 1.00000E+02
 -1       583-4.36900E+00 2.04250E+02 1.00000E+02
 -1       584-4.36900E+00 1.65750E+02 1.00000E+02
 -1       585-4.36900E+00 6.50000E+02 1.62000E+01
 -1       586-4.36900E+00 6.50000E+02 5.14500E+01
 -1       587-4.36900E+00 6.50000E+02 8.52500E+01
 -1       588 5.63100E+00 6.33000E+02 1.00000E+02
 -1       589 5.63100E+00 5.91000E+02 1.00000E+02
 -1       590 5.63100E+00 5.32500E+02 1.00000E+02
 -1       591 5.63100E+00 4.49250E+02 1.00000E+02
 -1       592 5.63100E+00 3.50250E+02 1.00000E+02
 -1       593 5.63100E+00 2.64000E+02 1.00000E+02
 -1       594 5.63100E+00 2.04250E+02 1.00000E+02
 -1       595 5.63100E+00 1.65750E+02 1.00000E+02
 -1       596 5.63100E+00 6.33250E+02-1.38425E-13
 -1       597 5.63100E+00 5.91500E+02-1.29240E-13
 -1       598 5.63100E+00 5.33500E+02-1.16480E-13
 -1       599 5.63100E+00 4.52000E+02-9.85500E-14
 -1       600 5.63100E+00 3.51000E+02-7.63300E-14
 -1       601 5.63100E+00 2.62250E+02-5.68050E-14
 -1       602 5.63100E+00 2.03500E+02-4.38800E-14
 -1       603 5.63100E+00 1.65500E+02-3.55200E-14
 -1       604 5.63100E+00 6.50000E+02 8.51500E+01
 -1       605 5.63100E+00 6.50000E+02 5.12500E+01
 -1       606 5.63100E+00 6.50000E+02 1.61000E+01
 -1       607 6.30996E-01 6.50000E+02 1.00000E+02
 -1       608-8.38201E+02 6.50000E+02 1.00000E+02
 -1       609-6.94005E+02 6.50000E+02 1.00000E+02
 -1       610-5.10401E+02 6.50000E+02 1.00000E+02
 -1       611-3.39335E+02 6.50000E+02 1.00000E+02
 -1       612-2.19768E+02 6.50000E+02 1.00000E+02
 -1       613-1.32892E+02 6.50000E+02 1.00000E+02
 -1       614-6.93023E+01 6.50000E+02 1.00000E+02
 -1       615-2.36251E+01 6.50000E+02 1.00000E+02
 -1       616-2.40729E+01 6.50000E+02 0.00000E+00
 -1       617-6.97501E+01 6.50000E+02 0.00000E+00
 -1       618-1.32444E+02 6.50000E+02 0.00000E+00
 -1       619-2.22007E+02 6.50000E+02 0.00000E+00
 -1       620-3.45604E+02 6.50000E+02 0.00000E+00
 -1       621-5.18461E+02 6.50000E+02 0.00000E+00
 -1       622-6.99826E+02 6.50000E+02 0.00000E+00
 -1       623-8.39545E+02 6.50000E+02 0.00000E+00
 -1       624-9.00000E+02 6.50000E+02 5.00000E+01
 -1       625 6.30996E-01 6.50000E+02-1.42110E-13
 -1       626 2.26240E+01 6.50000E+02 1.00000E+02
 -1       627 6.86840E+01 6.50000E+02 1.00000E+02
 -1       628 1.50519E+02 6.50000E+02 1.00000E+02
 -1       629 2.73942E+02 6.50000E+02 1.00000E+02
 -1       630 4.57287E+02 6.50000E+02 1.00000E+02
 -1       631 6.65228E+02 6.50000E+02 1.00000E+02
 -1       632 8.30239E+02 6.50000E+02 1.00000E+02
 -1       633 9.00000E+02 6.50000E+02 5.00000E+01
 -1       634 8.44996E+02 6.50000E+02 0.00000E+00
 -1       635 7.20232E+02 6.50000E+02 0.00000E+00
 -1       636 5.55221E+02 6.50000E+02 0.00000E+00
 -1       637 3.88421E+02 6.50000E+02 0.00000E+00
 -1       638 2.63656E+02 6.50000E+02 0.00000E+00
 -1       639 1.73325E+02 6.50000E+02 0.00000E+00
 -1       640 1.08931E+02 6.50000E+02 0.00000E+00
 -1       641 5.97403E+01 6.50000E+02 0.00000E+00
 -1       642 2.17296E+01 6.50000E+02 0.00000E+00
 -1       643-9.00000E+02-5.96700E+02 1.00000E+02
 -1       644-9.00000E+02-4.72550E+02 1.00000E+02
 -1       645-9.00000E+02-2.96400E+02 1.00000E+02
 -1       646-9.00000E+02-3.64000E+01 1.00000E+02
 -1       647-9.00000E+02 2.45700E+02 1.00000E+02
 -1       648-9.00000E+02 4.53050E+02 1.00000E+02
 -1       649-9.00000E+02 5.91500E+02 1.00000E+02
 -1       650-9.00000E+02 5.96050E+02 0.00000E+00
 -1       651-9.00000E+02 4.66700E+02 0.00000E+00
 -1       652-9.00000E+02 2.73000E+02 0.00000E+00
 -1       653-9.00000E+02-3.51000E+01 0.00000E+00
 -1       654-9.00000E+02-3.22400E+02 0.00000E+00
 -1       655-9.00000E+02-4.83600E+02 0.00000E+00
 -1       656-9.00000E+02-5.98650E+02 0.00000E+00
 -1       657-9.00000E+02-6.50000E+02 5.00000E+01
 -1       658 8.44200E+02-6.50000E+02 1.00000E+02
 -1       659 7.12800E+02-6.50000E+02 1.00000E+02
 -1       660 5.20200E+02-6.50000E+02 1.00000E+02
 -1       661 2.26800E+02-6.50000E+02 1.00000E+02
 -1       662-1.44000E+02-6.50000E+02 1.00000E+02
 -1       663-4.66200E+02-6.50000E+02 1.00000E+02
 -1       664-6.84000E+02-6.50000E+02 1.00000E+02
 -1       665-8.37000E+02-6.50000E+02 1.00000E+02
 -1       666-8.29800E+02-6.50000E+02 0.00000E+00
 -1       667-6.54300E+02-6.50000E+02 0.00000E+00
 -1       668-4.22100E+02-6.50000E+02 0.00000E+00
 -1       669-1.15200E+02-6.50000E+02 0.00000E+00
 -1       670 2.48400E+02-6.50000E+02 0.00000E+00
 -1       671 5.38200E+02-6.50000E+02 0.00000E+00
 -1       672 7.21800E+02-6.50000E+02 0.00000E+00
 -1       673 8.49600E+02-6.50000E+02 0.00000E+00
 -1       674 9.00000E+02-6.50000E+02 5.00000E+01
 -1       675 9.00000E+02 5.90200E+02 1.00000E+02
 -1       676 9.00000E+02 4.50450E+02 1.00000E+02
 -1       677 9.00000E+02 2.42450E+02 1.00000E+02
 -1       678 9.00000E+02-4.03000E+01 1.00000E+02
 -1       679 9.00000E+02-2.99650E+02 1.00000E+02
 -1       680 9.00000E+02-4.75150E+02 1.00000E+02
 -1       681 9.00000E+02-5.98000E+02 1.00000E+02
 -1       682 9.00000E+02-5.98000E+02 0.00000E+00
 -1       683 9.00000E+02-4.81650E+02 0.00000E+00
 -1       684 9.00000E+02-3.19800E+02 0.00000E+00
 -1       685 9.00000E+02-3.12000E+01 0.00000E+00
 -1       686 9.00000E+02 2.76900E+02 0.00000E+00
 -1       687 9.00000E+02 4.69300E+02 0.00000E+00
 -1       688 9.00000E+02 5.97350E+02 0.00000E+00
 -1       689 1.00000E+03-7.50000E+02 5.00000E+01
 -1       690-1.00000E+03-7.50000E+02 5.00000E+01
 -1       691 9.41000E+02-7.50000E+02 0.00000E+00
 -1       692 8.02000E+02-7.50000E+02 0.00000E+00
 -1       693 6.15000E+02-7.50000E+02 0.00000E+00
 -1       694 3.23000E+02-7.50000E+02 0.00000E+00
 -1       695-6.00000E+01-7.50000E+02 0.00000E+00
 -1       696-4.01000E+02-7.50000E+02 0.00000E+00
 -1       697-6.45000E+02-7.50000E+02 0.00000E+00
 -1       698-8.15000E+02-7.50000E+02 0.00000E+00
 -1       699-9.42000E+02-7.50000E+02 0.00000E+00
 -1       700 9.47000E+02-7.50000E+02 1.00000E+02
 -1       701 8.25000E+02-7.50000E+02 1.00000E+02
 -1       702 6.55000E+02-7.50000E+02 1.00000E+02
 -1       703 4.19000E+02-7.50000E+02 1.00000E+02
 -1       704 1.02000E+02-7.50000E+02 1.00000E+02
 -1       705-2.45000E+02-7.50000E+02 1.00000E+02
 -1       706-5.24000E+02-7.50000E+02 1.00000E+02
 -1       707-7.17000E+02-7.50000E+02 1.00000E+02
 -1       708-8.55000E+02-7.50000E+02 1.00000E+02
 -1       709-9.57000E+02-7.50000E+02 1.00000E+02
 -1       710-9.56000E+02 7.50000E+02 1.00000E+02
 -1       711-8.53000E+02 7.50000E+02 1.00000E+02
 -1       712-7.15000E+02 7.50000E+02 1.00000E+02
 -1       713-5.41000E+02 7.50000E+02 1.00000E+02
 -1       714-3.70000E+02 7.50000E+02 1.00000E+02
 -1       715-2.37000E+02 7.50000E+02 1.00000E+02
 -1       716-1.32000E+02 7.50000E+02 1.00000E+02
 -1       717-5.00000E+01 7.50000E+02 1.00000E+02
 -1       718 2.10000E+01 7.50000E+02 1.00000E+02
 -1       719 1.09000E+02 7.50000E+02 1.00000E+02
 -1       720 2.22000E+02 7.50000E+02 1.00000E+02
 -1       721 3.67000E+02 7.50000E+02 1.00000E+02
 -1       722 5.50000E+02 7.50000E+02 1.00000E+02
 -1       723 7.19000E+02 7.50000E+02 1.00000E+02
 -1       724 8.43000E+02 7.50000E+02 1.00000E+02
 -1       725 9.49000E+02 7.50000E+02 1.00000E+02
 -1       726-1.00000E+03-6.95250E+02 1.00000E+02
 -1       727-1.00000E+03-5.70000E+02 1.00000E+02
 -1       728-1.00000E+03-3.97500E+02 1.00000E+02
 -1       729-1.00000E+03-1.60500E+02 1.00000E+02
 -1       730-1.00000E+03 1.19250E+02 1.00000E+02
 -1       731-1.00000E+03 3.73500E+02 1.00000E+02
 -1       732-1.00000E+03 5.59500E+02 1.00000E+02
 -1       733-1.00000E+03 6.93000E+02 1.00000E+02
 -1       734 1.00000E+03 7.00500E+02 1.00000E+02
 -1       735 1.00000E+03 5.73750E+02 1.00000E+02
 -1       736 1.00000E+03 3.86250E+02 1.00000E+02
 -1       737 1.00000E+03 1.29750E+02 1.00000E+02
 -1       738 1.00000E+03-1.56000E+02 1.00000E+02
 -1       739 1.00000E+03-3.99000E+02 1.00000E+02
 -1       740 1.00000E+03-5.73750E+02 1.00000E+02
 -1       741 1.00000E+03-6.97500E+02 1.00000E+02
 -1       742-9.45000E+02 7.50000E+02 0.00000E+00
 -1       743-8.12000E+02 7.50000E+02 0.00000E+00
 -1       744-6.21000E+02 7.50000E+02 0.00000E+00
 -1       745-4.23000E+02 7.50000E+02 0.00000E+00
 -1       746-2.74000E+02 7.50000E+02 0.00000E+00
 -1       747-1.57000E+02 7.50000E+02 0.00000E+00
 -1       748-6.70000E+01 7.50000E+02 0.00000E+00
 -1       749 6.00000E+00 7.50000E+02 0.00000E+00
 -1       750 8.10000E+01 7.50000E+02 0.00000E+00
 -1       751 1.78000E+02 7.50000E+02 0.00000E+00
 -1       752 3.17000E+02 7.50000E+02 0.00000E+00
 -1       753 5.01000E+02 7.50000E+02 0.00000E+00
 -1       754 6.94000E+02 7.50000E+02 0.00000E+00
 -1       755 8.38000E+02 7.50000E+02 0.00000E+00
 -1       756 9.46000E+02 7.50000E+02 0.00000E+00
 -1       757-1.00000E+03-6.98250E+02 0.00000E+00
 -1       758-1.00000E+03-5.93250E+02 0.00000E+00
 -1       759-1.00000E+03-4.73250E+02 0.00000E+00
 -1       760-1.00000E+03-3.15000E+02 0.00000E+00
 -1       761-1.00000E+03-3.00000E+01 0.00000E+00
 -1       762-1.00000E+03 2.76750E+02 0.00000E+00
 -1       763-1.00000E+03 4.64250E+02 0.00000E+00
 -1       764-1.00000E+03 5.93250E+02 0.00000E+00
 -1       765-1.00000E+03 6.99000E+02 0.00000E+00
 -1       766 1.00000E+03 6.93750E+02 0.00000E+00
 -1       767 1.00000E+03 5.64000E+02 0.00000E+00
 -1       768 1.00000E+03 3.93000E+02 0.00000E+00
 -1       769 1.00000E+03 1.23000E+02 0.00000E+00
 -1       770 1.00000E+03-1.89000E+02 0.00000E+00
 -1       771 1.00000E+03-4.20000E+02 0.00000E+00
 -1       772 1.00000E+03-5.78250E+02 0.00000E+00
 -1       773 1.00000E+03-6.97500E+02 0.00000E+00
 -1       774 1.00000E+03 7.50000E+02 5.00000E+01
 -1       775-1.00000E+03 7.50000E+02 5.00000E+01
 -1       776-8.51760E+02 6.60000E+02 5.00000E+01
 -1       777 8.65410E+02 6.60000E+02 5.00000E+01
 -1       778-7.88970E+02 6.60000E+02 5.00000E+01
 -1       779-3.27600E+02 6.60000E+02 5.00000E+01
 -1       780-2.60260E+02 6.60000E+02 5.00000E+01
 -1       781-2.02020E+02 6.60000E+02 5.00000E+01
 -1       782-1.45600E+02 6.60000E+02 5.00000E+01
 -1       783-1.06470E+02 6.60000E+02 5.00000E+01
 -1       784-6.73400E+01 6.60000E+02 5.00000E+01
 -1       785 1.14660E+02 6.60000E+02 5.00000E+01
 -1       786 1.61980E+02 6.60000E+02 5.00000E+01
 -1       787 2.27500E+02 6.60000E+02 5.00000E+01
 -1       788 2.93020E+02 6.60000E+02 5.00000E+01
 -1       789 8.14450E+02 6.60000E+02 5.00000E+01
 -1       790-4.03130E+02 6.60000E+02 5.00000E+01
 -1       791-4.00400E+01 6.60000E+02 5.00000E+01
 -1       792 5.50550E+01 6.60000E+02 7.00464E+01
 -1       793 3.04850E+01 6.60000E+02 7.00464E+01
 -1       794 7.42560E+02 6.60000E+02 5.00000E+01
 -1       795 6.74310E+02 6.60000E+02 5.00000E+01
 -1       796-4.97770E+02 6.60000E+02 5.00000E+01
 -1       797-1.09200E+01 6.60000E+02 5.00000E+01
 -1       798 2.41150E+01 6.60000E+02 3.00464E+01
 -1       799 5.68750E+01 6.60000E+02 3.00464E+01
 -1       800-7.06160E+02 6.60000E+02 5.00000E+01
 -1       801-5.97870E+02 6.60000E+02 5.00000E+01
 -1       802 7.73500E+00 6.60000E+02 7.00464E+01
 -1       803 5.71480E+02 6.60000E+02 5.00000E+01
 -1       804 3.83110E+02 6.60000E+02 5.00000E+01
 -1       805 4.70470E+02 6.60000E+02 5.00000E+01
 -1       806 6.91600E+01 6.60000E+02 5.00000E+01
 -1       807 9.10000E+02 6.08520E+02 5.00000E+01
 -1       808 9.10000E+02-6.15120E+02 5.00000E+01
 -1       809 9.10000E+02-5.63640E+02 5.00000E+01
 -1       810 9.10000E+02-4.98960E+02 5.00000E+01
 -1       811 9.10000E+02 5.48460E+02 5.00000E+01
 -1       812 9.10000E+02-4.28340E+02 5.00000E+01
 -1       813 9.10000E+02 4.69920E+02 5.00000E+01
 -1       814 9.10000E+02 3.88080E+02 5.00000E+01
 -1       815 9.10000E+02-3.29340E+02 5.00000E+01
 -1       816 9.10000E+02-2.23080E+02 5.00000E+01
 -1       817 9.10000E+02 2.61360E+02 5.00000E+01
 -1       818 9.10000E+02 1.30680E+02 5.00000E+01
 -1       819 9.10000E+02-2.83800E+01 5.00000E+01
 -1       820 8.63590E+02-6.60000E+02 5.00000E+01
 -1       821-8.57220E+02-6.60000E+02 5.00000E+01
 -1       822-7.95340E+02-6.60000E+02 5.00000E+01
 -1       823 8.15360E+02-6.60000E+02 5.00000E+01
 -1       824 7.51660E+02-6.60000E+02 5.00000E+01
 -1       825 6.77950E+02-6.60000E+02 5.00000E+01
 -1       826-6.08790E+02-6.60000E+02 5.00000E+01
 -1       827-7.18900E+02-6.60000E+02 5.00000E+01
 -1       828 5.88770E+02-6.60000E+02 5.00000E+01
 -1       829-5.06870E+02-6.60000E+02 5.00000E+01
 -1       830 4.83210E+02-6.60000E+02 5.00000E+01
 -1       831-3.74920E+02-6.60000E+02 5.00000E+01
 -1       832 3.43070E+02-6.60000E+02 5.00000E+01
 -1       833-2.28410E+02-6.60000E+02 5.00000E+01
 -1       834 1.50150E+02-6.60000E+02 5.00000E+01
 -1       835-4.09500E+01-6.60000E+02 5.00000E+01
 -1       836-9.10000E+02-6.14460E+02 5.00000E+01
 -1       837-9.10000E+02 6.09180E+02 5.00000E+01
 -1       838-9.10000E+02 5.50440E+02 5.00000E+01
 -1       839-9.10000E+02-5.61660E+02 5.00000E+01
 -1       840-9.10000E+02-4.96320E+02 5.00000E+01
 -1       841-9.10000E+02-4.25700E+02 5.00000E+01
 -1       842-9.10000E+02 4.73220E+02 5.00000E+01
 -1       843-9.10000E+02 3.91380E+02 5.00000E+01
 -1       844-9.10000E+02-3.26040E+02 5.00000E+01
 -1       845-9.10000E+02-2.19120E+02 5.00000E+01
 -1       846-9.10000E+02 2.65980E+02 5.00000E+01
 -1       847-9.10000E+02 1.36620E+02 5.00000E+01
 -1       848-9.10000E+02-2.31000E+01 5.00000E+01
 -1       849 9.40500E+02-7.40000E+02 5.00000E+01
 -1       850-9.49410E+02-7.40000E+02 5.00000E+01
 -1       851-8.99910E+02-7.40000E+02 5.00000E+01
 -1       852 8.10810E+02-7.40000E+02 5.00000E+01
 -1       853 8.80110E+02-7.40000E+02 5.00000E+01
 -1       854-7.74180E+02-7.40000E+02 5.00000E+01
 -1       855-6.96960E+02-7.40000E+02 5.00000E+01
 -1       856-8.42490E+02-7.40000E+02 5.00000E+01
 -1       857 7.28640E+02-7.40000E+02 5.00000E+01
 -1       858-5.98950E+02-7.40000E+02 5.00000E+01
 -1       859 6.34590E+02-7.40000E+02 5.00000E+01
 -1       860-4.87080E+02-7.40000E+02 5.00000E+01
 -1       861 5.14800E+02-7.40000E+02 5.00000E+01
 -1       862-3.46500E+02-7.40000E+02 5.00000E+01
 -1       863 3.65310E+02-7.40000E+02 5.00000E+01
 -1       864 1.58400E+01-7.40000E+02 5.00000E+01
 -1       865 1.96020E+02-7.40000E+02 5.00000E+01
 -1       866-1.86120E+02-7.40000E+02 5.00000E+01
 -1       867-9.01490E+02 7.00000E+02 9.00000E+01
 -1       868-9.50000E+02 7.00000E+02 9.00000E+01
 -1       869-7.77910E+02 7.00000E+02 9.00000E+01
 -1       870-8.43250E+02 7.00000E+02 9.00000E+01
 -1       871-2.64050E+02 7.00000E+02 9.00000E+01
 -1       872-3.34340E+02 7.00000E+02 9.00000E+01
 -1       873-1.46410E+02 7.00000E+02 9.00000E+01
 -1       874-2.05810E+02 7.00000E+02 9.00000E+01
 -1       875-6.66900E+01 7.00000E+02 9.00000E+01
 -1       876-1.07280E+02 7.00000E+02 9.00000E+01
 -1       877 1.95000E+02 7.00000E+02 9.00000E+01
 -1       878 1.35600E+02 7.00000E+02 9.00000E+01
 -1       879 3.40710E+02 7.00000E+02 9.00000E+01
 -1       880 2.60520E+02 7.00000E+02 9.00000E+01
 -1       881 7.15950E+02 7.00000E+02 9.00000E+01
 -1       882 6.36750E+02 7.00000E+02 9.00000E+01
 -1       883 8.42610E+02 7.00000E+02 9.00000E+01
 -1       884 7.84200E+02 7.00000E+02 9.00000E+01
 -1       885 9.33570E+02 6.88200E+02 9.00000E+01
 -1       886 9.50000E+02 5.12660E+02 9.00000E+01
 -1       887 9.50000E+02 5.88140E+02 9.00000E+01
 -1       888 9.50000E+02-5.95980E+02 9.00000E+01
 -1       889 9.50000E+02-5.24200E+02 9.00000E+01
 -1       890 9.50000E+02-7.00000E+02 9.00000E+01
 -1       891 9.50000E+02-6.47460E+02 9.00000E+01
 -1       892 8.89610E+02-7.00000E+02 9.00000E+01
 -1       893-8.47720E+02-7.00000E+02 9.00000E+01
 -1       894-7.79410E+02-7.00000E+02 9.00000E+01
 -1       895-9.50000E+02-7.00000E+02 9.00000E+01
 -1       896-9.00500E+02-7.00000E+02 9.00000E+01
 -1       897-9.50000E+02-6.45980E+02 9.00000E+01
 -1       898-9.50000E+02 5.90940E+02 9.00000E+01
 -1       899-9.50000E+02 5.15460E+02 9.00000E+01
 -1       900-9.50000E+02 6.49680E+02 9.00000E+01
 -1       901-9.50000E+02-5.93180E+02 9.00000E+01
 -1       902-9.50000E+02-5.21400E+02 9.00000E+01
 -1       903-9.50000E+02-4.50780E+02 9.00000E+01
 -1       904-9.50000E+02 4.33620E+02 9.00000E+01
 -1       905 8.41380E+02-7.00000E+02 9.00000E+01
 -1       906 7.59210E+02-7.00000E+02 9.00000E+01
 -1       907 6.95510E+02-7.00000E+02 9.00000E+01
 -1       908-7.02970E+02-7.00000E+02 9.00000E+01
 -1       909 9.50000E+02 4.30820E+02 9.00000E+01
 -1       910 9.50000E+02-4.53580E+02 9.00000E+01
 -1       911-4.09870E+02 7.00000E+02 9.00000E+01
 -1       912-3.93900E+01 7.00000E+02 9.00000E+01
 -1       913 3.04850E+01 6.79954E+02 9.00000E+01
 -1       914 5.50550E+01 6.79954E+02 9.00000E+01
 -1       915 9.01000E+01 7.00000E+02 9.00000E+01
 -1       916 4.30800E+02 7.00000E+02 9.00000E+01
 -1       917-6.95100E+02 7.00000E+02 9.00000E+01
 -1       918-5.05900E+02 7.00000E+02 9.00000E+01
 -1       919-6.06000E+02 7.00000E+02 9.00000E+01
 -1       920 7.78150E+01 7.19954E+02 9.00000E+01
 -1       921 3.12850E+01 7.19954E+02 9.00000E+01
 -1       922 5.35740E+02 7.00000E+02 9.00000E+01
 -1       923 9.50000E+02-3.52200E+02 9.00000E+01
 -1       924 9.50000E+02 3.22040E+02 9.00000E+01
 -1       925 9.50000E+02-2.45940E+02 9.00000E+01
 -1       926-6.04960E+02-7.00000E+02 9.00000E+01
 -1       927-9.50000E+02-3.48660E+02 9.00000E+01
 -1       928-9.50000E+02 3.25580E+02 9.00000E+01
 -1       929-9.50000E+02-2.41740E+02 9.00000E+01
 -1       930-5.03040E+02-7.00000E+02 9.00000E+01
 -1       931 7.22500E+00 6.80000E+02 9.00000E+01
 -1       932 1.95100E+01 6.99954E+02 9.00000E+01
 -1       933 8.02500E+00 7.20000E+02 9.00000E+01
 -1       934-1.55250E+01 6.80000E+02 9.00000E+01
 -1       935-2.76150E+01 7.20000E+02 9.00000E+01
 -1       936 9.50000E+02 6.48200E+02 9.00000E+01
 -1       937 9.50000E+02 1.91360E+02 9.00000E+01
 -1       938 6.06330E+02-7.00000E+02 9.00000E+01
 -1       939 4.86540E+02-7.00000E+02 9.00000E+01
 -1       940-3.62460E+02-7.00000E+02 9.00000E+01
 -1       941 9.50000E+02-1.09780E+02 9.00000E+01
 -1       942-9.50000E+02 1.96220E+02 9.00000E+01
 -1       943-9.50000E+02-1.05580E+02 9.00000E+01
 -1       944 8.93570E+02 7.00000E+02 9.00000E+01
 -1       945 9.50000E+02 4.92800E+01 9.00000E+01
 -1       946-9.50000E+02 5.41400E+01 9.00000E+01
 -1       947 1.77110E+02-7.00000E+02 9.00000E+01
 -1       948 3.46400E+02-7.00000E+02 9.00000E+01
 -1       949-2.15950E+02-7.00000E+02 9.00000E+01
 -1       950-1.39900E+01-7.00000E+02 9.00000E+01
 -1       951-9.50000E+02 7.00000E+02 1.00000E+01
 -1       952-9.01490E+02 7.00000E+02 1.00000E+01
 -1       953-8.38700E+02 7.00000E+02 1.00000E+01
 -1       954-7.58510E+02 7.00000E+02 1.00000E+01
 -1       955-4.39750E+02 7.00000E+02 1.00000E+01
 -1       956-3.53620E+02 7.00000E+02 1.00000E+01
 -1       957-2.86280E+02 7.00000E+02 1.00000E+01
 -1       958-2.21930E+02 7.00000E+02 1.00000E+01
 -1       959-1.65510E+02 7.00000E+02 1.00000E+01
 -1       960-1.05120E+02 7.00000E+02 1.00000E+01
 -1       961-6.59900E+01 7.00000E+02 1.00000E+01
 -1       962-2.54000E+01 7.00000E+02 1.00000E+01
 -1       963 3.64800E+01 7.00000E+02 1.00000E+01
 -1       964 8.10300E+01 7.00000E+02 1.00000E+01
 -1       965 1.28350E+02 7.00000E+02 1.00000E+01
 -1       966 1.88740E+02 7.00000E+02 1.00000E+01
 -1       967 2.54260E+02 7.00000E+02 1.00000E+01
 -1       968 3.31480E+02 7.00000E+02 1.00000E+01
 -1       969 7.94530E+02 7.00000E+02 1.00000E+01
 -1       970 8.50960E+02 7.00000E+02 1.00000E+01
 -1       971 9.35550E+02 6.89680E+02 1.00000E+01
 -1       972 9.50000E+02 5.98200E+02 1.00000E+01
 -1       973 9.50000E+02 5.24200E+02 1.00000E+01
 -1       974 9.50000E+02-3.84720E+02 1.00000E+01
 -1       975 9.50000E+02-4.75740E+02 1.00000E+01
 -1       976 9.50000E+02-5.40420E+02 1.00000E+01
 -1       977 9.50000E+02-6.07760E+02 1.00000E+01
 -1       978 9.50000E+02-6.52640E+02 1.00000E+01
 -1       979 9.50000E+02-7.00000E+02 1.00000E+01
 -1       980 9.00500E+02-7.00000E+02 1.00000E+01
 -1       981-8.51990E+02-7.00000E+02 1.00000E+01
 -1       982-9.09410E+02-7.00000E+02 1.00000E+01
 -1       983-9.50000E+02-7.00000E+02 1.00000E+01
 -1       984-9.50000E+02-6.51160E+02 1.00000E+01
 -1       985-9.50000E+02-6.05620E+02 1.00000E+01
 -1       986-9.50000E+02-5.53080E+02 1.00000E+01
 -1       987-9.50000E+02-4.87740E+02 1.00000E+01
 -1       988-9.50000E+02-4.20400E+02 1.00000E+01
 -1       989-9.50000E+02 5.51500E+02 1.00000E+01
 -1       990-9.50000E+02 6.06260E+02 1.00000E+01
 -1       991-9.50000E+02 6.57080E+02 1.00000E+01
 -1       992 8.54090E+02-7.00000E+02 1.00000E+01
 -1       993 7.11080E+02-7.00000E+02 1.00000E+01
 -1       994 7.84790E+02-7.00000E+02 1.00000E+01
 -1       995-7.90110E+02-7.00000E+02 1.00000E+01
 -1       996 9.50000E+02 4.45660E+02 1.00000E+01
 -1       997 4.18840E+02 7.00000E+02 1.00000E+01
 -1       998 7.22640E+02 7.00000E+02 1.00000E+01
 -1       999 6.17030E+02-7.00000E+02 1.00000E+01
 -1      1000 3.72000E+00 7.00000E+02 1.00000E+01
 -1      1001 5.21800E+02 7.00000E+02 1.00000E+01
 -1      1002 6.24630E+02 7.00000E+02 1.00000E+01
 -1      1003 9.50000E+02 3.47980E+02 1.00000E+01
 -1      1004-7.12890E+02-7.00000E+02 1.00000E+01
 -1      1005-9.50000E+02-3.20740E+02 1.00000E+01
 -1      1006 5.11470E+02-7.00000E+02 1.00000E+01
 -1      1007-9.50000E+02-2.28240E+02 1.00000E+01
 -1      1008-9.50000E+02 4.01020E+02 1.00000E+01
 -1      1009-9.50000E+02 4.74280E+02 1.00000E+01
 -1      1010 9.50000E+02-2.85720E+02 1.00000E+01
 -1      1011-5.34390E+02 7.00000E+02 1.00000E+01
 -1      1012-6.50220E+02 7.00000E+02 1.00000E+01
 -1      1013 8.95550E+02 7.00000E+02 1.00000E+01
 -1      1014 9.50000E+02 6.49680E+02 1.00000E+01
 -1      1015-6.02780E+02-7.00000E+02 1.00000E+01
 -1      1016-4.90910E+02-7.00000E+02 1.00000E+01
 -1      1017 9.50000E+02-1.45120E+02 1.00000E+01
 -1      1018-3.58960E+02-7.00000E+02 1.00000E+01
 -1      1019 9.50000E+02 2.21260E+02 1.00000E+01
 -1      1020 9.50000E+02 4.95800E+01 1.00000E+01
 -1      1021-1.98580E+02-7.00000E+02 1.00000E+01
 -1      1022 3.61980E+02-7.00000E+02 1.00000E+01
 -1      1023 1.69060E+02-7.00000E+02 1.00000E+01
 -1      1024-1.11200E+01-7.00000E+02 1.00000E+01
 -1      1025-9.50000E+02 2.92240E+02 1.00000E+01
 -1      1026-9.50000E+02 1.66840E+02 1.00000E+01
 -1      1027-9.16171E+02-1.81787E+02 1.00000E+01
 -1      1028-9.56171E+02-1.71107E+02 1.00000E+01
 -1      1029-9.50000E+02-3.22200E+01 1.00000E+01
 -1      1030-9.16171E+02 1.42331E+01 1.00000E+01
 -1      1031 9.90000E+02 6.89680E+02 5.00000E+01
 -1      1032 9.90000E+02-6.92640E+02 5.00000E+01
 -1      1033 9.90000E+02-6.40100E+02 5.00000E+01
 -1      1034 9.90000E+02-5.72760E+02 5.00000E+01
 -1      1035 9.90000E+02 6.37880E+02 5.00000E+01
 -1      1036 9.90000E+02-5.00980E+02 5.00000E+01
 -1      1037 9.90000E+02 5.63880E+02 5.00000E+01
 -1      1038 9.90000E+02-4.09960E+02 5.00000E+01
 -1      1039 9.90000E+02 4.88400E+02 5.00000E+01
 -1      1040 9.90000E+02 3.90720E+02 5.00000E+01
 -1      1041 9.90000E+02-3.08580E+02 5.00000E+01
 -1      1042 9.90000E+02 2.81940E+02 5.00000E+01
 -1      1043 9.90000E+02-3.18200E+01 5.00000E+01
 -1      1044 9.90000E+02-1.67980E+02 5.00000E+01
 -1      1045 9.90000E+02 1.39860E+02 5.00000E+01
 -1      1046-9.90000E+02-6.91160E+02 5.00000E+01
 -1      1047-9.90000E+02 6.97080E+02 5.00000E+01
 -1      1048-9.90000E+02 6.46760E+02 5.00000E+01
 -1      1049-9.90000E+02-5.84600E+02 5.00000E+01
 -1      1050-9.90000E+02-6.37140E+02 5.00000E+01
 -1      1051-9.90000E+02-4.45480E+02 5.00000E+01
 -1      1052-9.90000E+02-5.12820E+02 5.00000E+01
 -1      1053-9.90000E+02-2.50860E+02 5.00000E+01
 -1      1054-9.90000E+02-3.43360E+02 5.00000E+01
 -1      1055-9.90000E+02 5.16520E+02 5.00000E+01
 -1      1056-9.90000E+02 4.43260E+02 5.00000E+01
 -1      1057-9.90000E+02 5.92000E+02 5.00000E+01
 -1      1058-9.90000E+02 3.35220E+02 5.00000E+01
 -1      1059-9.90000E+02 2.26440E+02 5.00000E+01
 -1      1060-9.90000E+02-1.14700E+02 5.00000E+01
 -1      1061-9.90000E+02 8.43600E+01 5.00000E+01
 -1      1062-9.41490E+02 7.40000E+02 5.00000E+01
 -1      1063 9.35550E+02 7.40000E+02 5.00000E+01
 -1      1064 8.79120E+02 7.40000E+02 5.00000E+01
 -1      1065-3.60360E+02 7.40000E+02 5.00000E+01
 -1      1066-4.46490E+02 7.40000E+02 5.00000E+01
 -1      1067-2.25720E+02 7.40000E+02 5.00000E+01
 -1      1068-2.90070E+02 7.40000E+02 5.00000E+01
 -1      1069-1.05930E+02 7.40000E+02 5.00000E+01
 -1      1070-1.66320E+02 7.40000E+02 5.00000E+01
 -1      1071-2.47500E+01 7.40000E+02 5.00000E+01
 -1      1072-6.53400E+01 7.40000E+02 5.00000E+01
 -1      1073 5.54400E+01 7.40000E+02 5.00000E+01
 -1      1074 1.08900E+01 7.40000E+02 5.00000E+01
 -1      1075 1.62360E+02 7.40000E+02 5.00000E+01
 -1      1076 1.01970E+02 7.40000E+02 5.00000E+01
 -1      1077 2.98980E+02 7.40000E+02 5.00000E+01
 -1      1078 2.21760E+02 7.40000E+02 5.00000E+01
 -1      1079 8.22690E+02 7.40000E+02 5.00000E+01
 -1      1080-8.92980E+02 7.40000E+02 5.00000E+01
 -1      1081 3.79170E+02 7.40000E+02 5.00000E+01
 -1      1082 7.64280E+02 7.40000E+02 5.00000E+01
 -1      1083-8.27640E+02 7.40000E+02 5.00000E+01
 -1      1084-7.47450E+02 7.40000E+02 5.00000E+01
 -1      1085 6.85080E+02 7.40000E+02 5.00000E+01
 -1      1086 5.87070E+02 7.40000E+02 5.00000E+01
 -1      1087-6.58350E+02 7.40000E+02 5.00000E+01
 -1      1088-5.42520E+02 7.40000E+02 5.00000E+01
 -1      1089 4.82130E+02 7.40000E+02 5.00000E+01
 -1      1090 6.30996E-01 1.50000E+02 8.52500E+01
 -1      1091 6.30996E-01 1.50000E+02 7.04000E+01
 -1      1092 6.30996E-01 1.50000E+02 1.61000E+01
 -1      1093 6.30996E-01 1.50000E+02 3.23000E+01
 -1      1094 6.30996E-01 1.50000E+02 5.13500E+01
 -1      1095-4.36900E+00 6.33250E+02 1.62000E+01
 -1      1096-4.36900E+00 5.79000E+02 2.34354E+01
 -1      1097-4.36900E+00 6.04000E+02 2.34354E+01
 -1      1098-4.36900E+00 5.13000E+02 2.34354E+01
 -1      1099-4.36900E+00 5.46000E+02 2.34354E+01
 -1      1100-4.36900E+00 5.58500E+02 4.68708E+01
 -1      1101-4.36900E+00 4.01500E+02 5.00000E+01
 -1      1102-4.36900E+00 4.50000E+02 5.00000E+01
 -1      1103-4.36900E+00 3.49000E+02 5.00000E+01
 -1      1104-4.36900E+00 2.26500E+02 5.00000E+01
 -1      1105-4.36900E+00 2.62750E+02 5.00000E+01
 -1      1106-4.36900E+00 1.65500E+02 1.62000E+01
 -1      1107-4.36900E+00 6.33000E+02 8.52500E+01
 -1      1108-4.36900E+00 6.03750E+02 7.34354E+01
 -1      1109-4.36900E+00 5.78750E+02 7.34354E+01
 -1      1110-4.36900E+00 5.45750E+02 7.34354E+01
 -1      1111-4.36900E+00 5.12250E+02 7.34354E+01
 -1      1112-4.36900E+00 1.65750E+02 8.52500E+01
 -1      1113-4.36900E+00 6.20750E+02 5.86854E+01
 -1      1114-4.36900E+00 1.69954E+02 6.09750E+01
 -1      1115-4.36900E+00 1.69954E+02 4.19250E+01
 -1      1116-4.36900E+00 6.20750E+02 3.96354E+01
 -1      1117-4.36900E+00 1.85454E+02 2.57250E+01
 -1      1118-4.36900E+00 1.85704E+02 7.57250E+01
 -1      1119-4.36900E+00 2.99750E+02 5.00000E+01
 -1      1120-4.36900E+00 2.07954E+02 2.57250E+01
 -1      1121-4.36900E+00 2.08454E+02 7.57250E+01
 -1      1122-4.36900E+00 4.99750E+02 5.00000E+01
 -1      1123 5.63100E+00 6.33000E+02 8.51500E+01
 -1      1124 5.63100E+00 5.78500E+02 7.65646E+01
 -1      1125 5.63100E+00 6.03500E+02 7.65646E+01
 -1      1126 5.63100E+00 5.11500E+02 7.65646E+01
 -1      1127 5.63100E+00 5.45000E+02 7.65646E+01
 -1      1128 5.63100E+00 5.57500E+02 5.31292E+01
 -1      1129 5.63100E+00 4.01500E+02 5.00000E+01
 -1      1130 5.63100E+00 4.51250E+02 5.00000E+01
 -1      1131 5.63100E+00 2.99750E+02 5.00000E+01
 -1      1132 5.63100E+00 3.49000E+02 5.00000E+01
 -1      1133 5.63100E+00 2.62750E+02 5.00000E+01
 -1      1134 5.63100E+00 1.65750E+02 8.51500E+01
 -1      1135 5.63100E+00 6.33250E+02 1.61000E+01
 -1      1136 5.63100E+00 6.03750E+02 2.65646E+01
 -1      1137 5.63100E+00 5.78750E+02 2.65646E+01
 -1      1138 5.63100E+00 5.45250E+02 2.65646E+01
 -1      1139 5.63100E+00 5.12250E+02 2.65646E+01
 -1      1140 5.63100E+00 2.26500E+02 5.00000E+01
 -1      1141 5.63100E+00 1.65500E+02 1.61000E+01
 -1      1142 5.63100E+00 6.20500E+02 4.26646E+01
 -1      1143 5.63100E+00 1.69954E+02 4.17250E+01
 -1      1144 5.63100E+00 1.69954E+02 6.07750E+01
 -1      1145 5.63100E+00 6.20500E+02 6.17146E+01
 -1      1146 5.63100E+00 1.85704E+02 7.56250E+01
 -1      1147 5.63100E+00 1.85454E+02 2.56250E+01
 -1      1148 5.63100E+00 2.08454E+02 7.56250E+01
 -1      1149 5.63100E+00 2.07954E+02 2.56250E+01
 -1      1150 5.63100E+00 4.99750E+02 5.00000E+01
 -1      1151 6.30996E-01 6.33000E+02 1.00000E+02
 -1      1152 6.30996E-01 1.65750E+02 1.00000E+02
 -1      1153 6.30996E-01 6.16000E+02 1.00000E+02
 -1      1154 6.30996E-01 1.81500E+02 1.00000E+02
 -1      1155-1.86900E+00 6.06490E+02 1.00000E+02
 -1      1156 3.13100E+00 6.06490E+02 1.00000E+02
 -1      1157 3.13100E+00 1.91010E+02 1.00000E+02
 -1      1158-1.86900E+00 1.91010E+02 1.00000E+02
 -1      1159 6.30996E-01 5.66000E+02 1.00000E+02
 -1      1160 6.30996E-01 5.91000E+02 1.00000E+02
 -1      1161-1.86900E+00 5.52469E+02 1.00000E+02
 -1      1162 3.13100E+00 5.52469E+02 1.00000E+02
 -1      1163 6.30996E-01 4.99000E+02 1.00000E+02
 -1      1164 6.30996E-01 5.32500E+02 1.00000E+02
 -1      1165 6.30996E-01 2.04250E+02 1.00000E+02
 -1      1166 6.30996E-01 2.27000E+02 1.00000E+02
 -1      1167 3.13100E+00 2.40531E+02 1.00000E+02
 -1      1168-1.86900E+00 2.40531E+02 1.00000E+02
 -1      1169-1.86900E+00 4.81449E+02 1.00000E+02
 -1      1170 3.13100E+00 4.81449E+02 1.00000E+02
 -1      1171 6.30996E-01 2.64000E+02 1.00000E+02
 -1      1172 6.30996E-01 3.01000E+02 1.00000E+02
 -1      1173 3.13100E+00 5.81490E+02 1.00000E+02
 -1      1174 3.13100E+00 3.22572E+02 1.00000E+02
 -1      1175-1.86900E+00 3.22572E+02 1.00000E+02
 -1      1176 6.30996E-01 3.99500E+02 1.00000E+02
 -1      1177 6.30996E-01 4.49250E+02 1.00000E+02
 -1      1178 6.30996E-01 3.50250E+02 1.00000E+02
 -1      1179 3.13100E+00 5.18969E+02 1.00000E+02
 -1      1180 3.13100E+00 2.77531E+02 1.00000E+02
 -1      1181 3.13100E+00 4.31699E+02 1.00000E+02
 -1      1182 3.13100E+00 2.13760E+02 1.00000E+02
 -1      1183 3.13100E+00 3.71822E+02 1.00000E+02
 -1      1184-8.39545E+02 6.50000E+02 5.00000E+01
 -1      1185-7.77746E+02 6.50000E+02 5.00000E+01
 -1      1186-6.98483E+02 6.50000E+02 5.00000E+01
 -1      1187-6.16085E+02 6.50000E+02 5.00000E+01
 -1      1188-3.42022E+02 6.50000E+02 5.00000E+01
 -1      1189-2.72163E+02 6.50000E+02 5.00000E+01
 -1      1190-2.19320E+02 6.50000E+02 5.00000E+01
 -1      1191-1.69613E+02 6.50000E+02 5.00000E+01
 -1      1192-1.32444E+02 6.50000E+02 5.00000E+01
 -1      1193-8.25128E+01 6.50000E+02 7.65646E+01
 -1      1194-5.60917E+01 6.50000E+02 7.65646E+01
 -1      1195-2.36251E+01 6.50000E+02 8.52500E+01
 -1      1196-2.40729E+01 6.50000E+02 1.62000E+01
 -1      1197-3.68356E+01 6.50000E+02 4.27646E+01
 -1      1198-5.65395E+01 6.50000E+02 2.65646E+01
 -1      1199-8.25128E+01 6.50000E+02 2.65646E+01
 -1      1200-4.12777E+02 6.50000E+02 5.00000E+01
 -1      1201-3.68356E+01 6.50000E+02 6.18146E+01
 -1      1202-5.13983E+02 6.50000E+02 5.00000E+01
 -1      1203-9.57234E+01 6.50000E+02 5.00000E+01
 -1      1204 6.30996E-01 6.33250E+02-1.38370E-13
 -1      1205 6.30996E-01 1.65500E+02-3.49650E-14
 -1      1206 6.30996E-01 6.16500E+02-1.34740E-13
 -1      1207 6.30996E-01 1.81000E+02-3.89300E-14
 -1      1208 3.13100E+00 6.06990E+02-1.32648E-13
 -1      1209-1.86900E+00 6.06990E+02-1.32648E-13
 -1      1210-1.86900E+00 1.90510E+02-4.10223E-14
 -1      1211 3.13100E+00 1.90510E+02-4.10223E-14
 -1      1212 6.30996E-01 5.66500E+02-1.23740E-13
 -1      1213 6.30996E-01 5.91500E+02-1.29240E-13
 -1      1214 3.13100E+00 5.52969E+02-1.20763E-13
 -1      1215-1.86900E+00 5.52969E+02-1.20763E-13
 -1      1216 6.30996E-01 5.00500E+02-1.09220E-13
 -1      1217 6.30996E-01 5.33500E+02-1.16480E-13
 -1      1218 3.13100E+00 4.82949E+02-1.05359E-13
 -1      1219-1.86900E+00 4.82949E+02-1.05359E-13
 -1      1220 6.30996E-01 2.26000E+02-4.88300E-14
 -1      1221 6.30996E-01 2.62250E+02-5.68050E-14
 -1      1222 6.30996E-01 2.03500E+02-4.38800E-14
 -1      1223-1.86900E+00 5.81990E+02-1.27148E-13
 -1      1224 6.30996E-01 2.98500E+02-6.47800E-14
 -1      1225-1.86900E+00 3.20072E+02-6.95258E-14
 -1      1226 3.13100E+00 3.20072E+02-6.95258E-14
 -1      1227 6.30996E-01 4.03500E+02-8.78800E-14
 -1      1228 6.30996E-01 4.52000E+02-9.85500E-14
 -1      1229 3.13100E+00 3.72572E+02-8.10758E-14
 -1      1230-1.86900E+00 3.72572E+02-8.10758E-14
 -1      1231-1.86900E+00 5.19969E+02-1.13503E-13
 -1      1232-1.86900E+00 4.34449E+02-9.46887E-14
 -1      1233-1.86900E+00 2.13010E+02-4.59723E-14
 -1      1234 2.26240E+01 6.50000E+02 8.51500E+01
 -1      1235 5.41505E+01 6.50000E+02 7.67880E+01
 -1      1236 8.32175E+01 6.50000E+02 7.67880E+01
 -1      1237 1.16980E+02 6.50000E+02 5.00000E+01
 -1      1238 1.69748E+02 6.50000E+02 5.00000E+01
 -1      1239 2.60079E+02 6.50000E+02 5.00000E+01
 -1      1240 3.30734E+02 6.50000E+02 5.00000E+01
 -1      1241 6.10224E+02 6.50000E+02 5.00000E+01
 -1      1242 7.05475E+02 6.50000E+02 5.00000E+01
 -1      1243 7.75236E+02 6.50000E+02 5.00000E+01
 -1      1244 8.44996E+02 6.50000E+02 5.00000E+01
 -1      1245 5.14974E+02 6.50000E+02 5.00000E+01
 -1      1246 4.02284E+02 6.50000E+02 5.00000E+01
 -1      1247 7.51682E+01 6.50000E+02 2.67880E+01
 -1      1248 5.32561E+01 6.50000E+02 2.67880E+01
 -1      1249 2.17296E+01 6.50000E+02 1.61000E+01
 -1      1250 3.71575E+01 6.50000E+02 6.19380E+01
 -1      1251 2.06864E+02 6.50000E+02 5.00000E+01
 -1      1252 1.02446E+02 6.50000E+02 2.67880E+01
 -1      1253 3.71575E+01 6.50000E+02 4.28880E+01
 -1      1254-9.00000E+02-5.98650E+02 5.00000E+01
 -1      1255-9.00000E+02-5.45350E+02 5.00000E+01
 -1      1256-9.00000E+02-4.81650E+02 5.00000E+01
 -1      1257-9.00000E+02-4.10800E+02 5.00000E+01
 -1      1258-9.00000E+02 3.82200E+02 5.00000E+01
 -1      1259-9.00000E+02 4.62150E+02 5.00000E+01
 -1      1260-9.00000E+02 5.37550E+02 5.00000E+01
 -1      1261-9.00000E+02 5.96050E+02 5.00000E+01
 -1      1262-9.00000E+02-3.13300E+02 5.00000E+01
 -1      1263-9.00000E+02-2.08000E+02 5.00000E+01
 -1      1264-9.00000E+02 1.36500E+02 5.00000E+01
 -1      1265-9.00000E+02 2.63900E+02 5.00000E+01
 -1      1266-9.00000E+02-5.33000E+01 5.00000E+01
 -1      1267 8.49600E+02-6.50000E+02 5.00000E+01
 -1      1268 7.93800E+02-6.50000E+02 5.00000E+01
 -1      1269 7.16400E+02-6.50000E+02 5.00000E+01
 -1      1270 6.40800E+02-6.50000E+02 5.00000E+01
 -1      1271-6.76800E+02-6.50000E+02 5.00000E+01
 -1      1272-7.66800E+02-6.50000E+02 5.00000E+01
 -1      1273-8.37000E+02-6.50000E+02 5.00000E+01
 -1      1274 5.34600E+02-6.50000E+02 5.00000E+01
 -1      1275 4.17600E+02-6.50000E+02 5.00000E+01
 -1      1276-5.71500E+02-6.50000E+02 5.00000E+01
 -1      1277-4.43700E+02-6.50000E+02 5.00000E+01
 -1      1278-3.16800E+02-6.50000E+02 5.00000E+01
 -1      1279 2.34000E+02-6.50000E+02 5.00000E+01
 -1      1280 5.76000E+01-6.50000E+02 5.00000E+01
 -1      1281-1.22400E+02-6.50000E+02 5.00000E+01
 -1      1282 9.00000E+02 5.97350E+02 5.00000E+01
 -1      1283 9.00000E+02 5.37550E+02 5.00000E+01
 -1      1284 9.00000E+02 4.62150E+02 5.00000E+01
 -1      1285 9.00000E+02 3.82200E+02 5.00000E+01
 -1      1286 9.00000E+02-4.10800E+02 5.00000E+01
 -1      1287 9.00000E+02-4.81650E+02 5.00000E+01
 -1      1288 9.00000E+02-5.98000E+02 5.00000E+01
 -1      1289 9.00000E+02 2.65200E+02 5.00000E+01
 -1      1290 9.00000E+02-5.46000E+02 5.00000E+01
 -1      1291 9.00000E+02-2.08650E+02 5.00000E+01
 -1      1292 9.00000E+02-3.13300E+02 5.00000E+01
 -1      1293 9.00000E+02 1.37150E+02 5.00000E+01
 -1      1294 9.00000E+02-5.39500E+01 5.00000E+01
 -1      1295 9.47000E+02-7.50000E+02 5.00000E+01
 -1      1296-9.57000E+02-7.50000E+02 5.00000E+01
 -1      1297 8.88000E+02-7.50000E+02 5.00000E+01
 -1      1298 8.19000E+02-7.50000E+02 5.00000E+01
 -1      1299 7.39000E+02-7.50000E+02 5.00000E+01
 -1      1300-5.91000E+02-7.50000E+02 5.00000E+01
 -1      1301-6.92000E+02-7.50000E+02 5.00000E+01
 -1      1302-7.71000E+02-7.50000E+02 5.00000E+01
 -1      1303-8.40000E+02-7.50000E+02 5.00000E+01
 -1      1304-8.99000E+02-7.50000E+02 5.00000E+01
 -1      1305-4.77000E+02-7.50000E+02 5.00000E+01
 -1      1306 6.38000E+02-7.50000E+02 5.00000E+01
 -1      1307 5.31000E+02-7.50000E+02 5.00000E+01
 -1      1308-3.34000E+02-7.50000E+02 5.00000E+01
 -1      1309-1.69000E+02-7.50000E+02 5.00000E+01
 -1      1310 3.96000E+02-7.50000E+02 5.00000E+01
 -1      1311 2.11000E+02-7.50000E+02 5.00000E+01
 -1      1312 2.90000E+01-7.50000E+02 5.00000E+01
 -1      1313-9.56000E+02 6.93000E+02 1.00000E+02
 -1      1314-9.06000E+02 7.00000E+02 1.00000E+02
 -1      1315-8.47000E+02 7.00000E+02 1.00000E+02
 -1      1316-7.85201E+02 7.00000E+02 1.00000E+02
 -1      1317-7.06201E+02 7.00000E+02 1.00000E+02
 -1      1318-4.27597E+02 7.00000E+02 1.00000E+02
 -1      1319-3.51597E+02 7.00000E+02 1.00000E+02
 -1      1320-2.81738E+02 7.00000E+02 1.00000E+02
 -1      1321-2.24738E+02 7.00000E+02 1.00000E+02
 -1      1322-1.37862E+02 7.00000E+02 1.00000E+02
 -1      1323-8.98617E+01 7.00000E+02 1.00000E+02
 -1      1324 7.78755E+01 7.00000E+02 1.00000E+02
 -1      1325 1.28876E+02 7.00000E+02 1.00000E+02
 -1      1326 1.81643E+02 7.00000E+02 1.00000E+02
 -1      1327 2.43643E+02 7.00000E+02 1.00000E+02
 -1      1328 3.14298E+02 7.00000E+02 1.00000E+02
 -1      1329 3.97298E+02 7.00000E+02 1.00000E+02
 -1      1330 5.09989E+02 7.00000E+02 1.00000E+02
 -1      1331 6.09989E+02 7.00000E+02 1.00000E+02
 -1      1332 7.05239E+02 7.00000E+02 1.00000E+02
 -1      1333 7.74239E+02 7.00000E+02 1.00000E+02
 -1      1334 8.44000E+02 7.00000E+02 1.00000E+02
 -1      1335 8.99000E+02 7.00000E+02 1.00000E+02
 -1      1336 9.50000E+02 7.00000E+02 1.00000E+02
 -1      1337-9.50000E+02-7.00000E+02 1.00000E+02
 -1      1338-9.50000E+02-6.45250E+02 1.00000E+02
 -1      1339-9.50000E+02-5.91950E+02 1.00000E+02
 -1      1340-9.50000E+02-5.21450E+02 1.00000E+02
 -1      1341-9.50000E+02 3.18550E+02 1.00000E+02
 -1      1342-9.50000E+02 4.28050E+02 1.00000E+02
 -1      1343-9.50000E+02 5.08000E+02 1.00000E+02
 -1      1344-9.50000E+02 5.84500E+02 1.00000E+02
 -1      1345 9.50000E+02 6.50500E+02 1.00000E+02
 -1      1346 9.50000E+02 5.90700E+02 1.00000E+02
 -1      1347 9.50000E+02 5.13450E+02 1.00000E+02
 -1      1348 9.50000E+02-3.49900E+02 1.00000E+02
 -1      1349 9.50000E+02-4.53400E+02 1.00000E+02
 -1      1350 9.50000E+02-5.24250E+02 1.00000E+02
 -1      1351 9.50000E+02-5.95500E+02 1.00000E+02
 -1      1352 9.50000E+02-6.47500E+02 1.00000E+02
 -1      1353 9.50000E+02-7.00000E+02 1.00000E+02
 -1      1354 8.97000E+02-7.00000E+02 1.00000E+02
 -1      1355 8.41200E+02-7.00000E+02 1.00000E+02
 -1      1356 7.72200E+02-7.00000E+02 1.00000E+02
 -1      1357-7.06000E+02-7.00000E+02 1.00000E+02
 -1      1358-7.85000E+02-7.00000E+02 1.00000E+02
 -1      1359-9.07000E+02-7.00000E+02 1.00000E+02
 -1      1360 9.50000E+02-2.45250E+02 1.00000E+02
 -1      1361-6.23803E+02 7.00000E+02 1.00000E+02
 -1      1362-5.28803E+02 7.00000E+02 1.00000E+02
 -1      1363-1.39970E+01 6.66472E+02 1.00000E+02
 -1      1364-3.32531E+01 6.66472E+02 1.00000E+02
 -1      1365 3.11205E+01 6.66472E+02 1.00000E+02
 -1      1366 1.41275E+01 6.66472E+02 1.00000E+02
 -1      1367 9.50000E+02 4.33500E+02 1.00000E+02
 -1      1368 6.96600E+02-7.00000E+02 1.00000E+02
 -1      1369-6.16000E+02-7.00000E+02 1.00000E+02
 -1      1370-8.48000E+02-7.00000E+02 1.00000E+02
 -1      1371-9.50000E+02-4.50600E+02 1.00000E+02
 -1      1372-9.50000E+02-2.43300E+02 1.00000E+02
 -1      1373-9.50000E+02-3.48600E+02 1.00000E+02
 -1      1374 9.50000E+02 3.23250E+02 1.00000E+02
 -1      1375 5.95600E+02-7.00000E+02 1.00000E+02
 -1      1376 4.78600E+02-7.00000E+02 1.00000E+02
 -1      1377-9.50000E+02 6.43000E+02 1.00000E+02
 -1      1378-1.75030E+02 7.00000E+02 1.00000E+02
 -1      1379-6.70000E+01 7.19601E+02 1.00000E+02
 -1      1380-3.30000E+01 7.19601E+02 1.00000E+02
 -1      1381 3.31200E+00 7.16472E+02 1.00000E+02
 -1      1382 4.03120E+01 7.16472E+02 1.00000E+02
 -1      1383 9.50000E+02-1.05750E+02 1.00000E+02
 -1      1384 9.50000E+02 1.95200E+02 1.00000E+02
 -1      1385-5.02000E+02-7.00000E+02 1.00000E+02
 -1      1386 3.43600E+02-7.00000E+02 1.00000E+02
 -1      1387-4.64406E+01 6.69601E+02 1.00000E+02
 -1      1388-7.28617E+01 6.69601E+02 1.00000E+02
 -1      1389-3.74200E+02-7.00000E+02 1.00000E+02
 -1      1390-9.50000E+02-1.08300E+02 1.00000E+02
 -1      1391-9.50000E+02 1.91150E+02 1.00000E+02
 -1      1392-3.68125E+01 6.86073E+02 1.00000E+02
 -1      1393 9.50000E+02 4.89500E+01 1.00000E+02
 -1      1394-9.50000E+02 4.64000E+01 1.00000E+02
 -1      1395 1.67200E+02-7.00000E+02 1.00000E+02
 -1      1396 5.31022E+01 6.67383E+02 1.00000E+02
 -1      1397 4.46057E+01 6.83855E+02 1.00000E+02
 -1      1398 3.13100E+00 6.62990E+02 1.00000E+02
 -1      1399-1.86900E+00 6.62990E+02 1.00000E+02
 -1      1400 8.21692E+01 6.67383E+02 1.00000E+02
 -1      1401 1.16275E+01 6.79462E+02 1.00000E+02
 -1      1402-1.14970E+01 6.79462E+02 1.00000E+02
 -1      1403-1.48000E+01-7.00000E+02 1.00000E+02
 -1      1404-2.09200E+02-7.00000E+02 1.00000E+02
 -1      1405-1.98125E+01 7.16472E+02 1.00000E+02
 -1      1406-7.68450E+00 7.12990E+02 1.00000E+02
 -1      1407 6.22937E+01 7.17383E+02 1.00000E+02
 -1      1408-8.95000E+02 7.00000E+02 0.00000E+00
 -1      1409-9.50000E+02 7.00000E+02 0.00000E+00
 -1      1410-7.56545E+02 7.00000E+02 0.00000E+00
 -1      1411-8.34545E+02 7.00000E+02 0.00000E+00
 -1      1412-3.77180E+02 7.00000E+02 0.00000E+00
 -1      1413-4.62180E+02 7.00000E+02 0.00000E+00
 -1      1414-2.42425E+02 7.00000E+02 0.00000E+00
 -1      1415-3.06425E+02 7.00000E+02 0.00000E+00
 -1      1416-1.36583E+02 7.00000E+02 0.00000E+00
 -1      1417-1.89583E+02 7.00000E+02 0.00000E+00
 -1      1418 2.23221E+02 7.00000E+02 0.00000E+00
 -1      1419 1.65221E+02 7.00000E+02 0.00000E+00
 -1      1420 5.31985E+02 7.00000E+02 0.00000E+00
 -1      1421 4.28985E+02 7.00000E+02 0.00000E+00
 -1      1422 7.17236E+02 7.00000E+02 0.00000E+00
 -1      1423 6.27236E+02 7.00000E+02 0.00000E+00
 -1      1424 8.40996E+02 7.00000E+02 0.00000E+00
 -1      1425 7.86996E+02 7.00000E+02 0.00000E+00
 -1      1426 9.50000E+02 7.00000E+02 0.00000E+00
 -1      1427 8.96000E+02 7.00000E+02 0.00000E+00
 -1      1428-9.50000E+02-6.48250E+02 0.00000E+00
 -1      1429-9.50000E+02-7.00000E+02 0.00000E+00
 -1      1430-9.50000E+02-5.43650E+02 0.00000E+00
 -1      1431-9.50000E+02-5.96900E+02 0.00000E+00
 -1      1432-9.50000E+02-4.13200E+02 0.00000E+00
 -1      1433-9.50000E+02-4.79950E+02 0.00000E+00
 -1      1434-9.50000E+02 4.64900E+02 0.00000E+00
 -1      1435-9.50000E+02 3.90650E+02 0.00000E+00
 -1      1436-9.50000E+02 5.95050E+02 0.00000E+00
 -1      1437-9.50000E+02 5.40300E+02 0.00000E+00
 -1      1438-9.50000E+02 6.49000E+02 0.00000E+00
 -1      1439 9.50000E+02 6.43750E+02 0.00000E+00
 -1      1440 9.50000E+02 3.44700E+02 0.00000E+00
 -1      1441 9.50000E+02 4.42200E+02 0.00000E+00
 -1      1442 9.50000E+02-4.64400E+02 0.00000E+00
 -1      1443 9.50000E+02-3.72900E+02 0.00000E+00
 -1      1444 9.50000E+02-5.95500E+02 0.00000E+00
 -1      1445 9.50000E+02-5.28750E+02 0.00000E+00
 -1      1446 9.50000E+02-7.00000E+02 0.00000E+00
 -1      1447 9.50000E+02-6.47500E+02 0.00000E+00
 -1      1448 8.91000E+02-7.00000E+02 0.00000E+00
 -1      1449 5.76200E+02-7.00000E+02 0.00000E+00
 -1      1450 6.83200E+02-7.00000E+02 0.00000E+00
 -1      1451-8.21800E+02-7.00000E+02 0.00000E+00
 -1      1452-7.52800E+02-7.00000E+02 0.00000E+00
 -1      1453-8.92000E+02-7.00000E+02 0.00000E+00
 -1      1454 9.50000E+02-2.75400E+02 0.00000E+00
 -1      1455 9.50000E+02 2.27700E+02 0.00000E+00
 -1      1456 9.50000E+02 5.17600E+02 0.00000E+00
 -1      1457 9.50000E+02 5.91100E+02 0.00000E+00
 -1      1458 4.70000E+02-7.00000E+02 0.00000E+00
 -1      1459 7.60600E+02-7.00000E+02 0.00000E+00
 -1      1460 8.40600E+02-7.00000E+02 0.00000E+00
 -1      1461 3.57436E+02 7.00000E+02 0.00000E+00
 -1      1462 2.76436E+02 7.00000E+02 0.00000E+00
 -1      1463 9.52915E+01 6.73435E+02 0.00000E+00
 -1      1464 1.22570E+02 6.73435E+02 0.00000E+00
 -1      1465 5.14674E+01 6.73435E+02 0.00000E+00
 -1      1466 7.33794E+01 6.73435E+02 0.00000E+00
 -1      1467 8.70186E+01 6.96871E+02 0.00000E+00
 -1      1468 1.92701E+01 6.73435E+02-7.10000E-14
 -1      1469 3.53688E+01 6.73435E+02 0.00000E+00
 -1      1470 4.90079E+01 6.96871E+02 0.00000E+00
 -1      1471-3.39248E+01 6.66472E+02 0.00000E+00
 -1      1472-1.42209E+01 6.66472E+02-7.10000E-14
 -1      1473-8.58714E+01 6.66472E+02 0.00000E+00
 -1      1474-5.98981E+01 6.66472E+02 0.00000E+00
 -1      1475-5.00462E+01 6.82944E+02 0.00000E+00
 -1      1476-9.98617E+01 7.00000E+02 0.00000E+00
 -1      1477-5.64282E+02 7.00000E+02 0.00000E+00
 -1      1478-6.77282E+02 7.00000E+02 0.00000E+00
 -1      1479 1.28104E+02 7.00000E+02 0.00000E+00
 -1      1480 9.25533E+01 7.23435E+02 0.00000E+00
 -1      1481 5.35533E+01 7.23435E+02 0.00000E+00
 -1      1482-9.50000E+02-2.24200E+02 0.00000E+00
 -1      1483-9.50000E+02-3.15700E+02 0.00000E+00
 -1      1484 9.50000E+02-1.35900E+02 0.00000E+00
 -1      1485-6.47500E+02-7.00000E+02 0.00000E+00
 -1      1486-5.46500E+02-7.00000E+02 0.00000E+00
 -1      1487 3.74546E+01 7.23435E+02 0.00000E+00
 -1      1488 1.45463E+00 7.23435E+02 0.00000E+00
 -1      1489-2.70364E+01 7.16472E+02 0.00000E+00
 -1      1490-6.40364E+01 7.16472E+02 0.00000E+00
 -1      1491-9.50000E+02 2.77400E+02 0.00000E+00
 -1      1492-4.19600E+02-7.00000E+02 0.00000E+00
 -1      1493-2.76600E+02-7.00000E+02 0.00000E+00
 -1      1494-9.50000E+02 1.59100E+02 0.00000E+00
 -1      1495 4.41818E+00 6.89907E+02 0.00000E+00
 -1      1496-1.86900E+00 6.62990E+02-7.10000E-14
 -1      1497 3.13100E+00 6.62990E+02-7.10000E-14
 -1      1498 1.14465E+02 7.23435E+02 0.00000E+00
 -1      1499-9.00097E+01 7.16472E+02 0.00000E+00
 -1      1500 9.50000E+02 5.52000E+01 0.00000E+00
 -1      1501-9.66000E+01-7.00000E+02 0.00000E+00
 -1      1502 2.85000E+02-7.00000E+02 0.00000E+00
 -1      1503 1.01400E+02-7.00000E+02 0.00000E+00
 -1      1504-1.17209E+01 6.79462E+02 0.00000E+00
 -1      1505 1.67701E+01 6.86425E+02 0.00000E+00
 -1      1506-9.74250E+02-1.70248E+02 0.00000E+00
 -1      1507-9.24250E+02-1.70948E+02 0.00000E+00
 -1      1508-9.34507E+02 4.88652E+01 0.00000E+00
 -1      1509-9.84507E+02 5.32652E+01 0.00000E+00
 -1      1510-9.24250E+02 1.88522E+01 0.00000E+00
 -1      1511-9.84507E+02-1.40235E+02 0.00000E+00
 -1      1512-9.58757E+02-8.69826E+01 0.00000E+00
 -1      1513 1.00000E+03 7.00500E+02 5.00000E+01
 -1      1514 1.00000E+03-6.97500E+02 5.00000E+01
 -1      1515 1.00000E+03 6.44250E+02 5.00000E+01
 -1      1516 1.00000E+03 5.67000E+02 5.00000E+01
 -1      1517 1.00000E+03 4.93500E+02 5.00000E+01
 -1      1518 1.00000E+03-5.78250E+02 5.00000E+01
 -1      1519 1.00000E+03-6.45000E+02 5.00000E+01
 -1      1520 1.00000E+03-5.07000E+02 5.00000E+01
 -1      1521 1.00000E+03 3.96000E+02 5.00000E+01
 -1      1522 1.00000E+03-4.15500E+02 5.00000E+01
 -1      1523 1.00000E+03 2.85750E+02 5.00000E+01
 -1      1524 1.00000E+03-3.12000E+02 5.00000E+01
 -1      1525 1.00000E+03-1.72500E+02 5.00000E+01
 -1      1526 1.00000E+03-3.30000E+01 5.00000E+01
 -1      1527 1.00000E+03 1.39500E+02 5.00000E+01
 -1      1528-1.00000E+03-6.98250E+02 5.00000E+01
 -1      1529-1.00000E+03 6.99000E+02 5.00000E+01
 -1      1530-1.00000E+03 6.42000E+02 5.00000E+01
 -1      1531-1.00000E+03-6.43500E+02 5.00000E+01
 -1      1532-1.00000E+03-5.90250E+02 5.00000E+01
 -1      1533-1.00000E+03-5.19750E+02 5.00000E+01
 -1      1534-1.00000E+03-4.53000E+02 5.00000E+01
 -1      1535-1.00000E+03-3.51000E+02 5.00000E+01
 -1      1536-1.00000E+03-2.59500E+02 5.00000E+01
 -1      1537-1.00000E+03 2.13750E+02 5.00000E+01
 -1      1538-1.00000E+03 3.27000E+02 5.00000E+01
 -1      1539-1.00000E+03 4.36500E+02 5.00000E+01
 -1      1540-1.00000E+03 5.10750E+02 5.00000E+01
 -1      1541-1.00000E+03 5.87250E+02 5.00000E+01
 -1      1542-1.00000E+03-1.24500E+02 5.00000E+01
 -1      1543-1.00000E+03 6.90000E+01 5.00000E+01
 -1      1544-9.56000E+02 7.50000E+02 5.00000E+01
 -1      1545 9.49000E+02 7.50000E+02 5.00000E+01
 -1      1546-9.01000E+02 7.50000E+02 5.00000E+01
 -1      1547-8.42000E+02 7.50000E+02 5.00000E+01
 -1      1548-7.64000E+02 7.50000E+02 5.00000E+01
 -1      1549-4.77000E+02 7.50000E+02 5.00000E+01
 -1      1550-3.92000E+02 7.50000E+02 5.00000E+01
 -1      1551-3.16000E+02 7.50000E+02 5.00000E+01
 -1      1552-2.52000E+02 7.50000E+02 5.00000E+01
 -1      1553-1.95000E+02 7.50000E+02 5.00000E+01
 -1      1554-1.42000E+02 7.50000E+02 5.00000E+01
 -1      1555-9.40000E+01 7.50000E+02 5.00000E+01
 -1      1556-5.70000E+01 7.50000E+02 5.00000E+01
 -1      1557-2.30000E+01 7.50000E+02 5.00000E+01
 -1      1558 1.30000E+01 7.50000E+02 5.00000E+01
 -1      1559 5.00000E+01 7.50000E+02 5.00000E+01
 -1      1560 8.90000E+01 7.50000E+02 5.00000E+01
 -1      1561 1.40000E+02 7.50000E+02 5.00000E+01
 -1      1562 1.98000E+02 7.50000E+02 5.00000E+01
 -1      1563 2.60000E+02 7.50000E+02 5.00000E+01
 -1      1564 3.41000E+02 7.50000E+02 5.00000E+01
 -1      1565 4.24000E+02 7.50000E+02 5.00000E+01
 -1      1566 5.27000E+02 7.50000E+02 5.00000E+01
 -1      1567 6.27000E+02 7.50000E+02 5.00000E+01
 -1      1568 7.17000E+02 7.50000E+02 5.00000E+01
 -1      1569 7.86000E+02 7.50000E+02 5.00000E+01
 -1      1570 8.40000E+02 7.50000E+02 5.00000E+01
 -1      1571 8.95000E+02 7.50000E+02 5.00000E+01
 -1      1572-6.85000E+02 7.50000E+02 5.00000E+01
 -1      1573-5.72000E+02 7.50000E+02 5.00000E+01
 -1      1574-4.19470E+02 7.45000E+02 5.00000E+00
 -1      1575-4.58650E+02 6.95000E+02 5.00000E+00
 -1      1576-5.04470E+02 7.45000E+02 5.00000E+00
 -1      1577-2.75745E+02 6.55000E+02 4.50000E+01
 -1      1578-3.42917E+02 6.55000E+02 9.50000E+01
 -1      1579-2.73058E+02 6.55000E+02 9.50000E+01
 -1      1580-1.18330E+02 7.45000E+02 4.50000E+01
 -1      1581-1.08330E+02 7.45000E+02 9.50000E+01
 -1      1582-1.56330E+02 7.45000E+02 9.50000E+01
 -1      1583-2.69340E+02 7.45000E+02 5.00000E+00
 -1      1584-3.11340E+02 7.45000E+02 5.50000E+01
 -1      1585-3.33340E+02 7.45000E+02 5.00000E+00
 -1      1586 2.33600E+01-7.45000E+02 9.50000E+01
 -1      1587 2.05360E+02-7.45000E+02 9.50000E+01
 -1      1588 1.32360E+02-7.45000E+02 4.50000E+01
 -1      1589-2.30730E+02 7.45000E+02 4.50000E+01
 -1      1590-2.15730E+02 7.45000E+02 9.50000E+01
 -1      1591-2.72730E+02 7.45000E+02 9.50000E+01
 -1      1592 7.33516E+02 6.55000E+02 5.00000E+00
 -1      1593 8.05406E+02 6.55000E+02 5.00000E+00
 -1      1594 7.99036E+02 6.55000E+02 4.50000E+01
 -1      1595 9.05000E+02-4.29090E+02 5.00000E+00
 -1      1596 9.55000E+02-4.76190E+02 5.00000E+00
 -1      1597 9.05000E+02-4.93440E+02 5.00000E+00
 -1      1598 8.17200E+02-7.45000E+02 5.00000E+00
 -1      1599 7.37200E+02-7.45000E+02 5.00000E+00
 -1      1600 7.75800E+02-6.95000E+02 5.00000E+00
 -1      1601-8.95500E+02-6.95000E+02 9.50000E+01
 -1      1602-9.05000E+02-6.55000E+02 9.50000E+01
 -1      1603-8.52220E+02-6.55000E+02 9.50000E+01
 -1      1604-9.95000E+02-7.45000E+02 4.50000E+01
 -1      1605-9.95000E+02-7.45000E+02 5.00000E+00
 -1      1606-9.95000E+02-6.93250E+02 4.50000E+01
 -1      1607-9.95000E+02-6.93250E+02 5.00000E+00
 -1      1608 2.55750E+02-7.05000E+02 9.50000E+01
 -1      1609 3.15350E+02-6.55000E+02 9.50000E+01
 -1      1610 1.38950E+02-6.55000E+02 9.50000E+01
 -1      1611 8.02410E+02 7.05000E+02 5.00000E+00
 -1      1612 8.56410E+02 7.05000E+02 5.00000E+00
 -1      1613 8.32550E+02 7.45000E+02 5.00000E+00
 -1      1614 8.86550E+02 7.45000E+02 5.00000E+00
 -1      1615-9.05000E+02 6.55000E+02 5.50000E+01
 -1      1616-9.05000E+02 6.55000E+02 5.00000E+00
 -1      1617-8.46760E+02 6.55000E+02 9.50000E+01
 -1      1618-8.46760E+02 6.55000E+02 4.50000E+01
 -1      1619-9.95000E+02-7.45000E+02 9.50000E+01
 -1      1620 5.34785E+01 6.55000E+02 9.50000E+01
 -1      1621 4.11935E+01 6.55000E+02 7.50464E+01
 -1      1622 2.89085E+01 6.55000E+02 9.50000E+01
 -1      1623 9.95000E+02-7.45000E+02 5.50000E+01
 -1      1624 9.42000E+02-7.45000E+02 5.50000E+01
 -1      1625 9.95000E+02-7.45000E+02 5.00000E+00
 -1      1626-1.27942E+02 6.55000E+02 9.50000E+01
 -1      1627-1.64663E+02 6.55000E+02 4.50000E+01
 -1      1628-1.65110E+02 6.55000E+02 9.50000E+01
 -1      1629 3.41586E+02 6.95000E+02 5.00000E+00
 -1      1630 3.01150E+02 7.45000E+02 5.00000E+00
 -1      1631 3.82150E+02 7.45000E+02 5.00000E+00
 -1      1632 3.74650E+02-7.45000E+02 9.50000E+01
 -1      1633 4.86650E+02-7.45000E+02 4.50000E+01
 -1      1634 2.74660E+02-7.45000E+02 5.50000E+01
 -1      1635 3.86660E+02-7.45000E+02 5.00000E+00
 -1      1636-6.96190E+02-7.45000E+02 9.50000E+01
 -1      1637-6.44780E+02-7.05000E+02 9.50000E+01
 -1      1638-7.64190E+02-6.95000E+02 9.50000E+01
 -1      1639-7.12780E+02-6.55000E+02 9.50000E+01
 -1      1640-1.14192E+02 6.95000E+02 9.50000E+01
 -1      1641-8.88117E+01 6.55000E+02 9.50000E+01
 -1      1642-9.05000E+02-6.09460E+02 5.50000E+01
 -1      1643-9.05000E+02-6.02200E+02 9.50000E+01
 -1      1644 3.38020E+02 7.45000E+02 9.50000E+01
 -1      1645 3.95020E+02 7.45000E+02 4.50000E+01
 -1      1646 3.25150E+02 7.45000E+02 5.50000E+01
 -1      1647-9.45000E+02 6.95000E+02 5.00000E+00
 -1      1648-9.45000E+02 6.52080E+02 5.00000E+00
 -1      1649-9.95000E+02 6.94000E+02 5.00000E+00
 -1      1650-9.95000E+02 6.51080E+02 5.00000E+00
 -1      1651-9.95000E+02-6.44410E+02 5.00000E+00
 -1      1652-1.13382E+02 6.55000E+02 5.50000E+01
 -1      1653 6.95880E+02-7.05000E+02 5.00000E+00
 -1      1654 7.34480E+02-6.55000E+02 5.00000E+00
 -1      1655 6.57080E+02-6.55000E+02 5.00000E+00
 -1      1656-9.45000E+02-6.40980E+02 9.50000E+01
 -1      1657 8.75610E+02-7.45000E+02 4.50000E+01
 -1      1658 8.81610E+02-7.45000E+02 9.50000E+01
 -1      1659 8.86500E+02-7.45000E+02 5.00000E+00
 -1      1660 8.92500E+02-7.45000E+02 5.50000E+01
 -1      1661-1.50103E+02 6.55000E+02 5.00000E+00
 -1      1662 1.50914E+02 6.55000E+02 5.00000E+00
 -1      1663 1.88031E+02 6.55000E+02 5.00000E+00
 -1      1664 1.84453E+02 6.55000E+02 5.50000E+01
 -1      1665-1.70080E+02 7.05000E+02 9.50000E+01
 -1      1666-9.45000E+02 2.85930E+02 5.00000E+00
 -1      1667-9.95000E+02 1.72030E+02 5.00000E+00
 -1      1668-9.95000E+02 2.85280E+02 5.00000E+00
 -1      1669 9.95000E+02-6.45140E+02 5.50000E+01
 -1      1670 9.95000E+02-5.78390E+02 5.00000E+00
 -1      1671 9.95000E+02-6.45140E+02 5.00000E+00
 -1      1672 9.55000E+02-5.40870E+02 5.00000E+00
 -1      1673 9.95000E+02-5.11050E+02 5.00000E+00
 -1      1674-9.45000E+02-6.95000E+02 9.50000E+01
 -1      1675-9.95000E+02 3.77660E+02 9.50000E+01
 -1      1676-9.45000E+02 3.22710E+02 9.50000E+01
 -1      1677-9.95000E+02 2.68160E+02 9.50000E+01
 -1      1678 8.08190E+02-6.55000E+02 5.00000E+00
 -1      1679 8.58590E+02-6.55000E+02 5.50000E+01
 -1      1680 8.58590E+02-6.55000E+02 5.00000E+00
 -1      1681-9.05000E+02 3.75970E+02 9.50000E+01
 -1      1682-9.55000E+02 4.30920E+02 9.50000E+01
 -1      1683-9.05000E+02 6.04180E+02 5.00000E+00
 -1      1684-9.55000E+02 6.03180E+02 5.00000E+00
 -1      1685-9.05000E+02 5.50230E+02 5.00000E+00
 -1      1686-5.57510E+02-6.55000E+02 5.00000E+00
 -1      1687-5.94270E+02-6.95000E+02 5.00000E+00
 -1      1688-6.62810E+02-6.55000E+02 5.00000E+00
 -1      1689-6.99570E+02-6.95000E+02 5.00000E+00
 -1      1690 8.00970E+02-6.55000E+02 9.50000E+01
 -1      1691 8.56770E+02-6.55000E+02 9.50000E+01
 -1      1692 8.53770E+02-7.05000E+02 9.50000E+01
 -1      1693 9.95000E+02 3.90470E+02 4.50000E+01
 -1      1694 9.95000E+02 2.81690E+02 4.50000E+01
 -1      1695 9.95000E+02 2.95750E+02 5.00000E+00
 -1      1696-7.86305E+02 6.55000E+02 4.50000E+01
 -1      1697-8.42210E+02 6.55000E+02 5.00000E+00
 -1      1698-7.81755E+02 6.55000E+02 5.00000E+00
 -1      1699-9.95000E+02 1.26080E+02 9.50000E+01
 -1      1700-9.55000E+02 1.92060E+02 9.50000E+01
 -1      1701-9.45000E+02 5.32300E+01 9.50000E+01
 -1      1702-9.05000E+02 1.19210E+02 9.50000E+01
 -1      1703-9.95000E+02 7.45000E+02 5.00000E+00
 -1      1704 7.54200E+02-7.45000E+02 5.50000E+01
 -1      1705 8.12610E+02-7.45000E+02 9.50000E+01
 -1      1706 9.05000E+02-5.58120E+02 5.50000E+01
 -1      1707 9.05000E+02-4.93440E+02 5.50000E+01
 -1      1708 9.05000E+02-5.51520E+02 9.50000E+01
 -1      1709 2.53551E+02 6.55000E+02 5.00000E+00
 -1      1710 2.66330E+02 7.05000E+02 5.00000E+00
 -1      1711 3.06766E+02 6.55000E+02 5.00000E+00
 -1      1712-2.85320E+02 7.05000E+02 9.50000E+01
 -1      1713-5.16364E+01 7.11472E+02 5.00000E+00
 -1      1714-7.76097E+01 7.11472E+02 5.00000E+00
 -1      1715-3.84264E+01 6.71472E+02 5.00000E+00
 -1      1716-6.43997E+01 6.71472E+02 5.00000E+00
 -1      1717-7.55845E+02 6.95000E+02 5.00000E+00
 -1      1718-8.11300E+02 7.45000E+02 5.00000E+00
 -1      1719-8.37210E+02 7.05000E+02 5.00000E+00
 -1      1720-2.23350E+02 6.55000E+02 9.50000E+01
 -1      1721-2.10760E+02 6.95000E+02 9.50000E+01
 -1      1722-2.60468E+02 6.95000E+02 9.50000E+01
 -1      1723 7.30520E+02 7.05000E+02 5.00000E+00
 -1      1724-9.05000E+02-6.55000E+02 5.50000E+01
 -1      1725-6.19753E+02 6.55000E+02 9.50000E+01
 -1      1726-7.02151E+02 6.55000E+02 9.50000E+01
 -1      1727-6.31950E+02 7.05000E+02 9.50000E+01
 -1      1728 9.41550E+00 6.67990E+02 9.50000E+01
 -1      1729 2.04120E+01 6.71472E+02 9.50000E+01
 -1      1730-1.55950E+00 6.87990E+02 9.50000E+01
 -1      1731 9.43700E+00 6.91472E+02 9.50000E+01
 -1      1732 1.80813E+02 6.55000E+02 9.50000E+01
 -1      1733 1.28046E+02 6.55000E+02 9.50000E+01
 -1      1734 1.47274E+02 6.55000E+02 4.50000E+01
 -1      1735-5.89723E+02 6.55000E+02 5.50000E+01
 -1      1736-5.94202E+02 6.55000E+02 5.00000E+00
 -1      1737-6.24232E+02 6.55000E+02 4.50000E+01
 -1      1738-2.06523E+02 6.55000E+02 5.00000E+00
 -1      1739-2.56678E+02 6.55000E+02 5.50000E+01
 -1      1740-2.06970E+02 6.55000E+02 5.50000E+01
 -1      1741 8.54300E+01 7.45000E+02 9.50000E+01
 -1      1742 7.45400E+01 7.45000E+02 5.50000E+01
 -1      1743 1.16430E+02 7.45000E+02 4.50000E+01
 -1      1744 1.05540E+02 7.45000E+02 5.00000E+00
 -1      1745-9.95000E+02-1.86700E+01 9.50000E+01
 -1      1746 9.05000E+02-5.58120E+02 5.00000E+00
 -1      1747 9.45000E+02-2.41800E+02 9.50000E+01
 -1      1748 9.45000E+02-3.46450E+02 9.50000E+01
 -1      1749 9.05000E+02-1.99140E+02 9.50000E+01
 -1      1750 9.05000E+02-3.03790E+02 9.50000E+01
 -1      1751-9.05000E+02-6.55000E+02 5.00000E+00
 -1      1752-8.43120E+02-6.55000E+02 5.00000E+00
 -1      1753-8.52220E+02-6.55000E+02 4.50000E+01
 -1      1754 9.45000E+02-5.18680E+02 9.50000E+01
 -1      1755 9.95000E+02-4.96930E+02 9.50000E+01
 -1      1756 9.55000E+02-5.29770E+02 9.50000E+01
 -1      1757 9.95000E+02 4.93930E+02 5.50000E+01
 -1      1758 9.95000E+02 4.90970E+02 9.50000E+01
 -1      1759 9.95000E+02 4.90930E+02 5.00000E+00
 -1      1760 9.95000E+02 4.87970E+02 4.50000E+01
 -1      1761 9.95000E+02 3.93250E+02 5.00000E+00
 -1      1762 4.55490E+02-6.55000E+02 9.50000E+01
 -1      1763 4.34250E+02-6.95000E+02 9.50000E+01
 -1      1764 5.30890E+02-7.05000E+02 9.50000E+01
 -1      1765 5.09650E+02-7.45000E+02 9.50000E+01
 -1      1766 6.30996E-01 1.65750E+02 8.52500E+01
 -1      1767-2.26940E+02 7.05000E+02 5.00000E+00
 -1      1768-2.04990E+02 7.45000E+02 5.00000E+00
 -1      1769-1.84573E+02 6.95000E+02 5.00000E+00
 -1      1770 9.95000E+02 5.64430E+02 5.00000E+00
 -1      1771-9.87500E+00 7.25000E+02 9.50000E+01
 -1      1772-1.36875E+01 6.91472E+02 9.50000E+01
 -1      1773 2.12120E+01 7.11472E+02 9.50000E+01
 -1      1774 1.90000E+00 7.45000E+02 9.50000E+01
 -1      1775 3.89000E+01 7.45000E+02 9.50000E+01
 -1      1776 3.09000E+01 7.45000E+02 4.50000E+01
 -1      1777-9.05000E+02-5.48900E+02 9.50000E+01
 -1      1778-9.45000E+02-5.15900E+02 9.50000E+01
 -1      1779-9.55000E+02-5.26950E+02 9.50000E+01
 -1      1780-9.95000E+02-4.93950E+02 9.50000E+01
 -1      1781 8.49590E+02-7.05000E+02 5.00000E+00
 -1      1782 9.45000E+02 5.07920E+02 9.50000E+01
 -1      1783 9.45000E+02 4.27970E+02 9.50000E+01
 -1      1784-5.46000E+01 7.45000E+02 5.00000E+00
 -1      1785-9.16000E+01 7.45000E+02 5.00000E+00
 -1      1786-8.16000E+01 7.45000E+02 5.50000E+01
 -1      1787-2.67600E+02-7.45000E+02 4.50000E+01
 -1      1788-1.78600E+02-7.45000E+02 9.50000E+01
 -1      1789-1.76520E+02-7.45000E+02 5.00000E+00
 -1      1790-8.75200E+01-7.45000E+02 5.50000E+01
 -1      1791-4.73470E+02 7.45000E+02 5.50000E+01
 -1      1792-7.75190E+02-7.45000E+02 9.50000E+01
 -1      1793 9.95000E+02-7.45000E+02 9.50000E+01
 -1      1794 9.42000E+02-7.45000E+02 9.50000E+01
 -1      1795-3.36900E+02-7.45000E+02 5.00000E+00
 -1      1796-2.80060E+02-7.05000E+02 5.00000E+00
 -1      1797-2.59365E+02 6.55000E+02 5.00000E+00
 -1      1798-5.37920E+02 7.05000E+02 5.00000E+00
 -1      1799-4.92100E+02 6.55000E+02 5.00000E+00
 -1      1800 9.95000E+02-6.92500E+02 5.00000E+00
 -1      1801 9.95000E+02-6.92500E+02 4.50000E+01
 -1      1802 6.30996E-01 1.69954E+02 4.18250E+01
 -1      1803 9.05000E+02 4.65180E+02 5.50000E+01
 -1      1804 9.05000E+02 4.72330E+02 5.00000E+00
 -1      1805 9.05000E+02 3.96930E+02 5.00000E+00
 -1      1806 9.05000E+02-6.55000E+02 9.50000E+01
 -1      1807 9.05000E+02-6.10120E+02 5.50000E+01
 -1      1808 9.05000E+02-6.55000E+02 4.50000E+01
 -1      1809 9.05000E+02-6.10120E+02 5.00000E+00
 -1      1810-9.55000E+02-5.54460E+02 5.00000E+00
 -1      1811-9.05000E+02-5.58110E+02 5.00000E+00
 -1      1812-9.55000E+02-6.07710E+02 5.00000E+00
 -1      1813-8.96490E+02 6.95000E+02 5.00000E+00
 -1      1814-8.91490E+02 7.45000E+02 5.00000E+00
 -1      1815-9.40000E+02 7.45000E+02 5.00000E+00
 -1      1816 9.45000E+02-6.95000E+02 9.50000E+01
 -1      1817 9.95000E+02-6.92500E+02 9.50000E+01
 -1      1818-9.95000E+02 4.40560E+02 5.50000E+01
 -1      1819-9.95000E+02 3.94060E+02 5.00000E+00
 -1      1820-9.95000E+02 4.68310E+02 5.00000E+00
 -1      1821-4.12900E+02-7.45000E+02 5.50000E+01
 -1      1822-3.43600E+02-7.45000E+02 9.50000E+01
 -1      1823-8.00220E+02-7.05000E+02 9.50000E+01
 -1      1824-7.89220E+02-6.55000E+02 9.50000E+01
 -1      1825-1.33345E+01 6.67990E+02 9.50000E+01
 -1      1826-2.54625E+01 6.71472E+02 9.50000E+01
 -1      1827-9.05000E+02 3.97610E+02 5.00000E+00
 -1      1828-9.05000E+02 4.73010E+02 5.00000E+00
 -1      1829-9.55000E+02 4.71210E+02 5.00000E+00
 -1      1830 2.14800E+01-7.45000E+02 5.00000E+00
 -1      1831-5.21500E+01-6.55000E+02 9.50000E+01
 -1      1832 8.85600E+01-6.95000E+02 9.50000E+01
 -1      1833-9.95000E+02 5.41570E+02 5.00000E+00
 -1      1834-9.95000E+02-5.65730E+02 9.50000E+01
 -1      1835-9.45000E+02 5.43370E+02 5.00000E+00
 -1      1836-9.05000E+02-6.09460E+02 5.00000E+00
 -1      1837 4.11935E+01 6.74954E+02 9.50000E+01
 -1      1838 9.05000E+02-6.03520E+02 9.50000E+01
 -1      1839-9.95000E+02-2.89830E+02 9.50000E+01
 -1      1840-9.95000E+02-1.54830E+02 9.50000E+01
 -1      1841-9.45000E+02-2.37630E+02 9.50000E+01
 -1      1842-7.69351E+02 6.95000E+02 9.50000E+01
 -1      1843-6.99150E+02 7.45000E+02 9.50000E+01
 -1      1844-7.63300E+02 7.45000E+02 5.50000E+01
 -1      1845-6.84300E+02 7.45000E+02 5.50000E+01
 -1      1846-7.78150E+02 7.45000E+02 9.50000E+01
 -1      1847 7.98040E+02 7.05000E+02 9.50000E+01
 -1      1848 7.84279E+02 6.55000E+02 9.50000E+01
 -1      1849 7.74160E+02 7.45000E+02 9.50000E+01
 -1      1850 7.60399E+02 6.95000E+02 9.50000E+01
 -1      1851 9.45000E+02 5.83400E+02 9.50000E+01
 -1      1852 9.05000E+02 5.35140E+02 9.50000E+01
 -1      1853-1.51990E+02 7.45000E+02 5.00000E+00
 -1      1854-1.17520E+02 7.05000E+02 5.00000E+00
 -1      1855 5.25960E+02 7.45000E+02 9.50000E+01
 -1      1856 6.25960E+02 7.45000E+02 9.50000E+01
 -1      1857 6.02960E+02 7.45000E+02 4.50000E+01
 -1      1858 9.05000E+02 4.53300E+02 9.50000E+01
 -1      1859 9.05000E+02 3.73350E+02 9.50000E+01
 -1      1860 6.30996E-01 1.89907E+02 5.13500E+01
 -1      1861 6.30996E-01 1.85454E+02 2.56250E+01
 -1      1862 6.30996E-01 6.20500E+02 6.18146E+01
 -1      1863 6.30996E-01 5.91250E+02 5.00000E+01
 -1      1864 6.30996E-01 6.03500E+02 7.65646E+01
 -1      1865 7.42670E+02-6.55000E+02 4.50000E+01
 -1      1866 6.65270E+02-6.55000E+02 4.50000E+01
 -1      1867 6.30996E-01 1.85704E+02 7.57250E+01
 -1      1868-9.95000E+02-6.36230E+02 9.50000E+01
 -1      1869-9.95000E+02-6.90250E+02 9.50000E+01
 -1      1870 9.55000E+02-6.52500E+02 9.50000E+01
 -1      1871 6.30996E-01 1.65500E+02 1.61000E+01
 -1      1872-1.03530E+02 6.71472E+02 5.00000E+00
 -1      1873 4.69890E+02-6.55000E+02 4.50000E+01
 -1      1874 4.45320E+02-6.55000E+02 5.00000E+00
 -1      1875 5.76090E+02-6.55000E+02 4.50000E+01
 -1      1876 5.51520E+02-6.55000E+02 5.00000E+00
 -1      1877-9.05000E+02 6.55000E+02 9.50000E+01
 -1      1878-4.07400E+01 7.45000E+02 4.50000E+01
 -1      1879-6.77400E+01 7.45000E+02 9.50000E+01
 -1      1880-3.37400E+01 7.45000E+02 9.50000E+01
 -1      1881-1.89990E+02 7.45000E+02 5.50000E+01
 -1      1882-7.02492E+02 6.55000E+02 5.00000E+00
 -1      1883-6.76582E+02 6.95000E+02 5.00000E+00
 -1      1884-7.33300E+02 7.45000E+02 5.00000E+00
 -1      1885 9.66048E+02 7.16712E+02 7.28204E+00
 -1      1886 9.11598E+02 7.16712E+02 7.28204E+00
 -1      1887 9.17048E+02 7.21712E+02 2.28204E+00
 -1      1888 9.41000E+02 7.45000E+02 5.00000E+00
 -1      1889 5.36150E+02-7.45000E+02 5.00000E+00
 -1      1890 6.43150E+02-7.45000E+02 5.00000E+00
 -1      1891 5.59150E+02-7.45000E+02 5.50000E+01
 -1      1892 9.02000E+02-7.05000E+02 9.50000E+01
 -1      1893 6.30996E-01 1.69954E+02 6.08750E+01
 -1      1894 9.05000E+02-2.32590E+02 5.00000E+00
 -1      1895 9.05000E+02-3.23590E+02 5.50000E+01
 -1      1896 9.05000E+02-3.30090E+02 5.00000E+00
 -1      1897 9.55000E+02-3.84690E+02 5.00000E+00
 -1      1898-9.05000E+02 6.04180E+02 5.50000E+01
 -1      1899 2.57830E+02 7.45000E+02 9.50000E+01
 -1      1900 1.95830E+02 7.45000E+02 9.50000E+01
 -1      1901 2.33830E+02 7.45000E+02 4.50000E+01
 -1      1902-7.66120E+02-7.05000E+02 5.00000E+00
 -1      1903-7.69990E+02-7.45000E+02 5.00000E+00
 -1      1904-8.35120E+02-7.05000E+02 5.00000E+00
 -1      1905-8.38990E+02-7.45000E+02 5.00000E+00
 -1      1906 2.46333E+02 6.55000E+02 9.50000E+01
 -1      1907 3.03126E+02 6.55000E+02 4.50000E+01
 -1      1908 3.16988E+02 6.55000E+02 9.50000E+01
 -1      1909 9.55000E+02 4.45230E+02 5.00000E+00
 -1      1910-9.05000E+02 2.46610E+02 9.50000E+01
 -1      1911-3.65020E+02 7.45000E+02 4.50000E+01
 -1      1912-3.43020E+02 7.45000E+02 9.50000E+01
 -1      1913-9.05000E+02 1.35710E+02 5.50000E+01
 -1      1914-9.05000E+02 2.63110E+02 5.50000E+01
 -1      1915-9.05000E+02 1.53910E+02 5.00000E+00
 -1      1916 9.45000E+02-4.47830E+02 9.50000E+01
 -1      1917 9.05000E+02-4.10050E+02 9.50000E+01
 -1      1918 9.05000E+02-4.80900E+02 9.50000E+01
 -1      1919 8.95500E+02-6.95000E+02 5.00000E+00
 -1      1920 9.05000E+02-6.55000E+02 5.00000E+00
 -1      1921 9.45000E+02-6.95000E+02 5.00000E+00
 -1      1922-9.45000E+02-4.45050E+02 9.50000E+01
 -1      1923-9.95000E+02-3.91950E+02 9.50000E+01
 -1      1924-9.45000E+02-3.42930E+02 9.50000E+01
 -1      1925 1.85930E+02 7.45000E+02 5.50000E+01
 -1      1926 2.23930E+02 7.45000E+02 5.00000E+00
 -1      1927 1.65930E+02 7.45000E+02 5.00000E+00
 -1      1928 9.05000E+02 6.03520E+02 5.00000E+00
 -1      1929 9.55000E+02 5.97270E+02 5.00000E+00
 -1      1930 9.05000E+02 5.50870E+02 5.00000E+00
 -1      1931-4.19020E+02 7.45000E+02 9.50000E+01
 -1      1932 5.85949E+02 6.95000E+02 9.50000E+01
 -1      1933-9.95000E+02-5.91160E+02 5.00000E+00
 -1      1934-7.72920E+02-6.55000E+02 5.00000E+00
 -1      1935-9.95000E+02-2.53830E+02 4.50000E+01
 -1      1936-9.95000E+02-4.04530E+02 5.00000E+00
 -1      1937-9.95000E+02-4.71870E+02 5.00000E+00
 -1      1938-9.55000E+02-4.22370E+02 5.00000E+00
 -1      1939 9.55000E+02-6.07620E+02 5.00000E+00
 -1      1940-7.50190E+02-7.45000E+02 4.50000E+01
 -1      1941-9.51000E+02 7.45000E+02 9.50000E+01
 -1      1942-9.02490E+02 7.45000E+02 9.50000E+01
 -1      1943-9.11000E+02 7.05000E+02 9.50000E+01
 -1      1944-9.55000E+02-7.05000E+02 5.00000E+00
 -1      1945-9.54410E+02-7.45000E+02 5.00000E+00
 -1      1946 1.74446E+01 7.18435E+02 5.00000E+00
 -1      1947-1.40100E+01 7.45000E+02 5.00000E+00
 -1      1948-1.10464E+01 7.11472E+02 5.00000E+00
 -1      1949-5.07400E+01 7.14601E+02 9.50000E+01
 -1      1950-2.68750E+01 6.94601E+02 9.50000E+01
 -1      1951 6.30996E-01 6.20750E+02 3.95354E+01
 -1      1952 6.30996E-01 6.20750E+02 5.85854E+01
 -1      1953 6.30996E-01 6.50000E+02 3.23000E+01
 -1      1954 6.30996E-01 6.50000E+02 5.13500E+01
 -1      1955-9.95000E+02 2.22280E+02 5.50000E+01
 -1      1956 9.36000E+02-7.45000E+02 5.00000E+00
 -1      1957 9.45000E+02 5.18030E+02 5.00000E+00
 -1      1958 6.30996E-01 6.33000E+02 8.52500E+01
 -1      1959-8.29500E+01 7.05000E+02 9.50000E+01
 -1      1960 6.61026E+02 6.55000E+02 4.50000E+01
 -1      1961 7.16029E+02 6.55000E+02 9.50000E+01
 -1      1962 6.63756E+02 6.55000E+02 5.00000E+00
 -1      1963 7.18759E+02 6.55000E+02 5.50000E+01
 -1      1964 5.72490E+02-6.55000E+02 9.50000E+01
 -1      1965-6.59500E+01 6.74601E+02 9.50000E+01
 -1      1966 9.45000E+02 1.91140E+02 9.50000E+01
 -1      1967 9.95000E+02 1.25690E+02 9.50000E+01
 -1      1968 9.95000E+02 2.71940E+02 9.50000E+01
 -1      1969-9.51000E+02 7.45000E+02 5.50000E+01
 -1      1970-9.95000E+02 7.45000E+02 4.50000E+01
 -1      1971-5.46050E+02 7.45000E+02 4.50000E+01
 -1      1972-6.10050E+02 7.45000E+02 9.50000E+01
 -1      1973-5.15050E+02 7.45000E+02 9.50000E+01
 -1      1974-9.95000E+02 6.43680E+02 4.50000E+01
 -1      1975-9.95000E+02 5.96320E+02 5.00000E+00
 -1      1976-9.95000E+02 6.37680E+02 9.50000E+01
 -1      1977-9.95000E+02 5.90320E+02 5.50000E+01
 -1      1978 9.95000E+02-1.69050E+02 4.50000E+01
 -1      1979 9.95000E+02-1.52550E+02 9.50000E+01
 -1      1980 9.95000E+02-4.84300E+01 5.00000E+00
 -1      1981 9.95000E+02-3.19300E+01 5.50000E+01
 -1      1982-7.05580E+02-6.55000E+02 4.50000E+01
 -1      1983-5.80010E+02-6.55000E+02 5.50000E+01
 -1      1984-6.22780E+02-6.55000E+02 9.50000E+01
 -1      1985-9.05000E+02-4.90820E+02 5.50000E+01
 -1      1986-9.05000E+02-4.92770E+02 5.00000E+00
 -1      1987-9.05000E+02-5.50850E+02 4.50000E+01
 -1      1988-9.95000E+02-4.47450E+02 4.50000E+01
 -1      1989-9.95000E+02-3.45330E+02 4.50000E+01
 -1      1990-1.95120E+02-6.95000E+02 5.00000E+00
 -1      1991-2.98660E+02-6.55000E+02 5.00000E+00
 -1      1992 6.60790E+02 7.05000E+02 9.50000E+01
 -1      1993 7.05160E+02 7.45000E+02 9.50000E+01
 -1      1994 7.63162E+01 6.55000E+02 5.00000E+00
 -1      1995 5.44041E+01 6.55000E+02 5.00000E+00
 -1      1996 6.80433E+01 6.78435E+02 5.00000E+00
 -1      1997-9.95000E+02 6.94000E+02 4.50000E+01
 -1      1998-4.79900E+02-7.45000E+02 5.00000E+00
 -1      1999-5.91770E+02-7.45000E+02 5.00000E+00
 -1      2000-5.51180E+02-7.45000E+02 4.50000E+01
 -1      2001 7.78120E+02 7.45000E+02 5.50000E+01
 -1      2002 7.09120E+02 7.45000E+02 5.50000E+01
 -1      2003-8.43490E+02 7.45000E+02 5.50000E+01
 -1      2004 7.30440E+02-7.45000E+02 9.50000E+01
 -1      2005 6.71040E+02-6.95000E+02 9.50000E+01
 -1      2006 6.29440E+02-7.45000E+02 9.50000E+01
 -1      2007-9.95000E+02 6.88000E+02 9.50000E+01
 -1      2008 3.26970E+01 6.91425E+02 9.50000E+01
 -1      2009-6.10411E+01 6.55000E+02 3.15646E+01
 -1      2010-7.56011E+01 6.55000E+02 7.15646E+01
 -1      2011-4.83011E+01 6.55000E+02 7.15646E+01
 -1      2012 6.30996E-01 6.50000E+02 7.04000E+01
 -1      2013 2.19900E+01 7.45000E+02 5.00000E+00
 -1      2014 9.05000E+02 5.42290E+02 4.50000E+01
 -1      2015 9.05000E+02 5.94940E+02 9.50000E+01
 -1      2016 9.05000E+02 6.03520E+02 5.50000E+01
 -1      2017-8.97000E+02-7.05000E+02 5.00000E+00
 -1      2018-9.05000E+02 4.55920E+02 9.50000E+01
 -1      2019-9.05000E+02 5.37760E+02 9.50000E+01
 -1      2020-9.05000E+02 4.68460E+02 5.50000E+01
 -1      2021-8.88117E+01 6.55000E+02 4.50000E+01
 -1      2022-1.13382E+02 6.55000E+02 5.00000E+00
 -1      2023-7.42517E+01 6.55000E+02 5.00000E+00
 -1      2024 2.11151E+02 6.95000E+02 5.00000E+00
 -1      2025 3.68318E+02 6.95000E+02 9.50000E+01
 -1      2026 4.07078E+02 6.55000E+02 9.50000E+01
 -1      2027 4.21020E+02 7.45000E+02 9.50000E+01
 -1      2028 4.59780E+02 7.05000E+02 9.50000E+01
 -1      2029-4.18447E+02 6.55000E+02 9.50000E+01
 -1      2030-4.36850E+02 7.05000E+02 9.50000E+01
 -1      2031-4.00617E+02 6.95000E+02 9.50000E+01
 -1      2032-5.20860E+02-6.55000E+02 9.50000E+01
 -1      2033-5.76180E+02-6.95000E+02 9.50000E+01
 -1      2034-4.28860E+02-7.05000E+02 9.50000E+01
 -1      2035-4.84180E+02-7.45000E+02 9.50000E+01
 -1      2036-5.19653E+02 6.55000E+02 9.50000E+01
 -1      2037-9.02490E+02 7.45000E+02 5.50000E+01
 -1      2038 6.30996E-01 2.07954E+02 2.56250E+01
 -1      2039-5.97853E+02 6.95000E+02 9.50000E+01
 -1      2040 9.95000E+02-6.39960E+02 9.50000E+01
 -1      2041-1.58345E+01 6.55000E+02 9.50000E+01
 -1      2042-8.96410E+02-7.45000E+02 5.00000E+00
 -1      2043 5.19769E+02 6.55000E+02 9.50000E+01
 -1      2044 4.64765E+02 6.55000E+02 4.50000E+01
 -1      2045-3.50906E+01 6.55000E+02 9.50000E+01
 -1      2046-9.55000E+02-6.53250E+02 5.00000E+00
 -1      2047-1.58345E+01 6.55000E+02 8.02500E+01
 -1      2048 6.40520E+02 7.05000E+02 5.00000E+00
 -1      2049 9.05000E+02-4.16550E+02 4.50000E+01
 -1      2050 5.11110E+02 7.45000E+02 5.50000E+01
 -1      2051 5.88110E+02 7.45000E+02 5.00000E+00
 -1      2052 7.76120E+02 7.45000E+02 5.00000E+00
 -1      2053 6.86120E+02 7.45000E+02 5.00000E+00
 -1      2054-7.01000E+00 7.45000E+02 5.50000E+01
 -1      2055-9.05000E+02-4.29070E+02 5.00000E+00
 -1      2056-9.05000E+02-4.78280E+02 9.50000E+01
 -1      2057-9.05000E+02-4.16530E+02 4.50000E+01
 -1      2058 2.49911E+02 6.55000E+02 4.50000E+01
 -1      2059 6.98320E+01 6.55000E+02 3.17880E+01
 -1      2060-4.82784E+01 6.55000E+02 5.00000E+00
 -1      2061-8.43500E+02-7.45000E+02 9.50000E+01
 -1      2062-7.93760E+02 7.05000E+02 9.50000E+01
 -1      2063-7.84961E+02 6.55000E+02 9.50000E+01
 -1      2064 8.02790E+02-6.55000E+02 5.50000E+01
 -1      2065 7.37270E+02-6.55000E+02 9.50000E+01
 -1      2066-9.55000E+02-1.12410E+02 9.50000E+01
 -1      2067-9.05000E+02-1.95210E+02 9.50000E+01
 -1      2068-9.55000E+02 6.48000E+02 9.50000E+01
 -1      2069 7.80933E+01 7.18435E+02 5.00000E+00
 -1      2070 1.00005E+02 7.18435E+02 5.00000E+00
 -1      2071 6.65400E+01 7.45000E+02 5.00000E+00
 -1      2072-9.05000E+02 3.85070E+02 4.50000E+01
 -1      2073 9.05000E+02-3.78900E+01 5.00000E+00
 -1      2074 9.05000E+02 1.30460E+02 5.50000E+01
 -1      2075 9.05000E+02 1.53210E+02 5.00000E+00
 -1      2076 6.80120E+01 6.55000E+02 7.17880E+01
 -1      2077 8.25455E+01 6.55000E+02 9.50000E+01
 -1      2078 1.19155E+01 6.55000E+02 9.50000E+01
 -1      2079 9.55000E+02-2.85690E+02 5.00000E+00
 -1      2080 9.95000E+02-1.63900E+01 9.50000E+01
 -1      2081 6.30996E-01 2.08454E+02 7.57250E+01
 -1      2082-4.82400E+02-6.95000E+02 5.00000E+00
 -1      2083-3.01765E+02 6.95000E+02 5.00000E+00
 -1      2084 5.03850E+01 7.24954E+02 9.50000E+01
 -1      2085 5.46787E+01 6.92337E+02 9.50000E+01
 -1      2086-3.55500E+02-6.95000E+02 5.00000E+00
 -1      2087 6.30996E-01 6.50000E+02 8.52500E+01
 -1      2088-1.86900E+00 1.95214E+02 7.57250E+01
 -1      2089 9.45000E+02-1.05640E+02 9.50000E+01
 -1      2090 9.05000E+02 3.85230E+02 5.50000E+01
 -1      2091 9.05000E+02 2.79930E+02 5.00000E+00
 -1      2092 9.05000E+02 2.68050E+02 4.50000E+01
 -1      2093 7.13440E+02-7.45000E+02 4.50000E+01
 -1      2094 1.05306E+02 6.95000E+02 9.50000E+01
 -1      2095 1.36430E+02 7.45000E+02 9.50000E+01
 -1      2096 1.59170E+02 7.05000E+02 9.50000E+01
 -1      2097 6.20779E+02 6.55000E+02 9.50000E+01
 -1      2098 1.91846E+01 6.78435E+02 5.00000E+00
 -1      2099 5.54550E+00 6.55000E+02 5.00000E+00
 -1      2100 2.16441E+01 6.55000E+02 5.00000E+00
 -1      2101-9.95000E+02 7.75300E+01 5.50000E+01
 -1      2102 2.17473E+02 6.95000E+02 9.50000E+01
 -1      2103 3.04550E+00 6.67990E+02 5.00000E+00
 -1      2104 9.95000E+02-5.06550E+02 5.50000E+01
 -1      2105 9.95000E+02-5.68710E+02 9.50000E+01
 -1      2106 9.95000E+02-5.73210E+02 4.50000E+01
 -1      2107 2.86690E+02 7.05000E+02 9.50000E+01
 -1      2108-4.98360E+02-6.55000E+02 4.50000E+01
 -1      2109 9.95000E+02-4.09930E+02 4.50000E+01
 -1      2110 9.95000E+02-3.93430E+02 9.50000E+01
 -1      2111-9.55000E+02 1.58310E+02 5.00000E+00
 -1      2112-9.45000E+02 1.67630E+02 5.00000E+00
 -1      2113 6.69637E+01 6.72383E+02 9.50000E+01
 -1      2114-9.05000E+02-4.07430E+02 9.50000E+01
 -1      2115-3.93877E+02 6.55000E+02 5.50000E+01
 -1      2116-3.97460E+02 6.55000E+02 5.00000E+00
 -1      2117-3.26705E+02 6.55000E+02 5.00000E+00
 -1      2118 9.95000E+02-4.19550E+02 5.00000E+00
 -1      2119 9.55000E+02-6.01020E+02 9.50000E+01
 -1      2120-3.58280E+02 7.05000E+02 5.00000E+00
 -1      2121 9.55000E+02 3.47730E+02 5.00000E+00
 -1      2122-4.22030E+02 6.55000E+02 4.50000E+01
 -1      2123 9.95000E+02-2.92050E+02 9.50000E+01
 -1      2124-6.92770E+02-7.45000E+02 5.00000E+00
 -1      2125-6.38770E+02-7.45000E+02 5.50000E+01
 -1      2126 2.01660E+02-7.45000E+02 5.00000E+00
 -1      2127-9.55000E+02 3.96960E+02 5.00000E+00
 -1      2128 9.95000E+02 3.80720E+02 9.50000E+01
 -1      2129-9.95000E+02-5.38620E+02 5.00000E+00
 -1      2130-9.55000E+02-4.89120E+02 5.00000E+00
 -1      2131 1.03594E+02 6.55000E+02 5.00000E+00
 -1      2132 8.99553E+01 6.78435E+02 5.00000E+00
 -1      2133-1.51200E+01-6.95000E+02 5.00000E+00
 -1      2134 6.88000E+01-6.55000E+02 5.00000E+00
 -1      2135 1.05400E+02-7.05000E+02 5.00000E+00
 -1      2136 6.04350E+02-6.95000E+02 5.00000E+00
 -1      2137 9.95000E+02 6.43700E+02 9.50000E+01
 -1      2138 9.45000E+02 6.43200E+02 9.50000E+01
 -1      2139-9.45000E+02-5.87680E+02 9.50000E+01
 -1      2140 4.02991E+01 6.55000E+02 2.50464E+01
 -1      2141 5.57270E+01 6.55000E+02 5.18344E+01
 -1      2142 6.30996E-01 2.26500E+02 5.00000E+01
 -1      2143 9.95000E+02 5.66450E+02 9.50000E+01
 -1      2144 9.95000E+02 6.38430E+02 5.00000E+00
 -1      2145-6.23906E+01 6.55000E+02 9.50000E+01
 -1      2146 4.83320E+02-7.05000E+02 5.00000E+00
 -1      2147 7.84770E+02-7.05000E+02 9.50000E+01
 -1      2148-3.86500E+01 6.74601E+02 9.50000E+01
 -1      2149 6.26700E+01 7.05000E+02 9.50000E+01
 -1      2150 9.95000E+02 5.67930E+02 5.50000E+01
 -1      2151 9.95000E+02 6.45180E+02 5.50000E+01
 -1      2152-1.17350E+02-7.05000E+02 9.50000E+01
 -1      2153 9.55000E+02 4.85100E+01 5.00000E+00
 -1      2154 9.55000E+02-1.46190E+02 5.00000E+00
 -1      2155-9.95000E+02 5.13450E+02 4.50000E+01
 -1      2156-9.95000E+02 4.85700E+02 9.50000E+01
 -1      2157-9.95000E+02 3.31160E+02 4.50000E+01
 -1      2158-8.87500E+02-7.45000E+02 4.50000E+01
 -1      2159-7.94990E+02-7.45000E+02 5.50000E+01
 -1      2160-2.85745E+01 6.55000E+02 2.12000E+01
 -1      2161-9.95000E+02 5.62200E+02 9.50000E+01
 -1      2162-9.55000E+02 5.89260E+02 9.50000E+01
 -1      2163 5.16095E+02 6.95000E+02 5.00000E+00
 -1      2164 4.85110E+02 7.45000E+02 5.00000E+00
 -1      2165 4.65675E+02 6.55000E+02 5.00000E+00
 -1      2166 4.34690E+02 7.05000E+02 5.00000E+00
 -1      2167 9.05000E+02-2.12790E+02 4.50000E+01
 -1      2168 3.29750E+02-6.55000E+02 4.50000E+01
 -1      2169-5.98180E+02-7.45000E+02 9.50000E+01
 -1      2170-8.43490E+02 7.45000E+02 9.50000E+01
 -1      2171 9.45000E+02-6.47640E+02 5.00000E+00
 -1      2172 7.21070E+02-7.05000E+02 9.50000E+01
 -1      2173 6.61670E+02-6.55000E+02 9.50000E+01
 -1      2174 9.95000E+02-3.28530E+02 5.00000E+00
 -1      2175 6.30996E-01 6.50000E+02 1.61000E+01
 -1      2176 5.45498E-01 6.55000E+02 5.00000E+00
 -1      2177 5.54550E+00 6.55000E+02 2.11000E+01
 -1      2178-9.39507E+02 4.80752E+01 5.00000E+00
 -1      2179 8.60410E+02 6.55000E+02 5.00000E+00
 -1      2180-3.20260E+02-6.55000E+02 5.50000E+01
 -1      2181-2.24950E+02-6.55000E+02 4.50000E+01
 -1      2182-2.46550E+02-6.55000E+02 9.50000E+01
 -1      2183 2.42005E+01 6.55000E+02 4.11464E+01
 -1      2184 6.30996E-01 6.33250E+02 1.61000E+01
 -1      2185 6.30996E-01 6.04000E+02 2.34354E+01
 -1      2186-7.80120E+02-6.55000E+02 5.50000E+01
 -1      2187-9.95000E+02-5.18370E+02 5.50000E+01
 -1      2188-9.95000E+02-5.85980E+02 4.50000E+01
 -1      2189 9.95000E+02-3.12030E+02 5.50000E+01
 -1      2190 9.95000E+02-1.89030E+02 5.00000E+00
 -1      2191 9.55000E+02 2.21010E+02 5.00000E+00
 -1      2192 1.19155E+01 6.55000E+02 8.01500E+01
 -1      2193 2.42005E+01 6.55000E+02 6.01964E+01
 -1      2194 5.20679E+02 6.55000E+02 5.50000E+01
 -1      2195 9.05000E+02 6.55000E+02 9.50000E+01
 -1      2196 8.60410E+02 6.55000E+02 5.50000E+01
 -1      2197 8.54040E+02 6.55000E+02 9.50000E+01
 -1      2198 9.05000E+02 6.55000E+02 4.50000E+01
 -1      2199 9.05000E+02 6.55000E+02 5.00000E+00
 -1      2200 8.88570E+02 6.95000E+02 9.50000E+01
 -1      2201-8.96490E+02 6.95000E+02 9.50000E+01
 -1      2202 6.30996E-01 5.11500E+02 7.65646E+01
 -1      2203 3.13100E+00 4.93949E+02 7.65646E+01
 -1      2204 6.30996E-01 5.45000E+02 7.65646E+01
 -1      2205 6.30996E-01 5.24750E+02 5.00000E+01
 -1      2206-1.91584E+01 6.55000E+02 5.00000E+00
 -1      2207 5.45498E-01 6.55000E+02 2.12000E+01
 -1      2208-9.95000E+02-6.41410E+02 5.50000E+01
 -1      2209-9.30644E+00 6.71472E+02 5.00000E+00
 -1      2210 9.95000E+02 6.95500E+02 9.50000E+01
 -1      2211-3.58484E+01 6.52409E+02 5.32671E+01
 -1      2212-1.48472E+01 6.57409E+02 7.17025E+01
 -1      2213-2.75872E+01 6.57409E+02 3.17025E+01
 -1      2214 9.10977E+02 7.42528E+02 2.87264E+01
 -1      2215 9.16427E+02 7.47528E+02 2.37264E+01
 -1      2216 8.84570E+02 7.45000E+02 4.50000E+01
 -1      2217 9.08997E+02 7.42528E+02 6.87263E+01
 -1      2218 9.65427E+02 7.42528E+02 6.87263E+01
 -1      2219-9.55000E+02-3.22710E+02 5.00000E+00
 -1      2220-9.95000E+02 7.45000E+02 9.50000E+01
 -1      2221-9.05000E+02-3.29410E+02 5.00000E+00
 -1      2222-3.38173E+00 6.52409E+02 6.19525E+01
 -1      2223-9.02500E+02-7.45000E+02 9.50000E+01
 -1      2224-9.05000E+02 5.42310E+02 4.50000E+01
 -1      2225 9.38570E+02 7.45000E+02 9.50000E+01
 -1      2226 8.87570E+02 7.45000E+02 9.50000E+01
 -1      2227 8.32570E+02 7.45000E+02 9.50000E+01
 -1      2228-3.38173E+00 6.52409E+02 4.29025E+01
 -1      2229 6.91550E+00 6.55000E+02 8.02500E+01
 -1      2230 6.91550E+00 6.55000E+02 9.50000E+01
 -1      2231 9.55000E+02 4.91700E+01 9.50000E+01
 -1      2232 9.05000E+02 1.14620E+02 9.50000E+01
 -1      2233-9.05000E+02 5.96260E+02 9.50000E+01
 -1      2234 3.94126E+02 6.55000E+02 5.00000E+00
 -1      2235 9.05000E+02-4.00800E+01 9.50000E+01
 -1      2236 5.19446E+01 6.78435E+02 5.00000E+00
 -1      2237 9.95000E+02 7.45000E+02 5.00000E+00
 -1      2238 9.95000E+02 7.45000E+02 5.50000E+01
 -1      2239 9.95000E+02 6.95500E+02 5.50000E+01
 -1      2240 9.95000E+02 6.88750E+02 5.00000E+00
 -1      2241 9.55000E+02 3.26100E+02 9.50000E+01
 -1      2242-7.03495E+02 6.55000E+02 4.50000E+01
 -1      2243 1.37275E+02 6.78435E+02 5.00000E+00
 -1      2244 3.35433E+01 7.18435E+02 5.00000E+00
 -1      2245 8.43655E+01 6.55000E+02 5.50000E+01
 -1      2246 1.42810E+02 7.05000E+02 5.00000E+00
 -1      2247 3.93216E+02 6.55000E+02 4.50000E+01
 -1      2248 5.60926E+02 6.55000E+02 5.00000E+00
 -1      2249 6.30996E-01 2.62750E+02 5.00000E+01
 -1      2250 6.11346E+02 6.95000E+02 5.00000E+00
 -1      2251-1.86900E+00 2.76281E+02 5.00000E+01
 -1      2252-4.25560E+02-6.55000E+02 5.00000E+00
 -1      2253-3.93060E+02-6.55000E+02 9.50000E+01
 -1      2254-6.20300E+02 7.45000E+02 5.00000E+00
 -1      2255-9.45000E+02 5.10700E+02 9.50000E+01
 -1      2256 9.05000E+02 2.45300E+02 9.50000E+01
 -1      2257 9.95000E+02 1.24070E+02 5.00000E+00
 -1      2258 9.45000E+02 6.44680E+02 5.00000E+00
 -1      2259 9.21048E+02 6.71712E+02 2.28204E+00
 -1      2260 9.66048E+02 6.66392E+02 7.28204E+00
 -1      2261 9.71048E+02 6.65462E+02 2.28204E+00
 -1      2262 9.26048E+02 6.76712E+02 7.28204E+00
 -1      2263 7.90277E+00 6.57409E+02 7.17025E+01
 -1      2264 1.61827E+00 6.52409E+02 6.18525E+01
 -1      2265 2.01878E+01 6.57409E+02 5.17489E+01
 -1      2266 3.48660E+02-6.95000E+02 5.00000E+00
 -1      2267-1.11200E+02-6.55000E+02 5.00000E+00
 -1      2268 3.13100E+00 4.32449E+02 5.00000E+01
 -1      2269 6.30996E-01 4.64647E+02 5.00000E+01
 -1      2270 2.25380E+00 4.55806E+02 1.45006E+01
 -1      2271 4.75380E+00 4.22857E+02 6.45006E+01
 -1      2272 2.25380E+00 4.55056E+02 6.45006E+01
 -1      2273-9.52000E+02-7.45000E+02 9.50000E+01
 -1      2274 1.46150E+02-6.55000E+02 4.50000E+01
 -1      2275 1.53277E+00 6.57409E+02 3.17025E+01
 -1      2276 1.61827E+00 6.52409E+02 4.28025E+01
 -1      2277-9.95000E+02-3.12030E+02 5.00000E+00
 -1      2278-2.46196E-01 4.24857E+02 1.45006E+01
 -1      2279 4.75380E+00 4.73357E+02 1.45006E+01
 -1      2280 4.75380E+00 4.24857E+02 1.45006E+01
 -1      2281 9.45000E+02 6.95000E+02 9.50000E+01
 -1      2282 9.95000E+02 7.45000E+02 9.50000E+01
 -1      2283-9.05000E+02-3.00510E+02 9.50000E+01
 -1      2284-9.05000E+02-3.20310E+02 5.50000E+01
 -1      2285-9.05000E+02 2.72210E+02 5.00000E+00
 -1      2286-9.79507E+02 6.17952E+01 5.00000E+00
 -1      2287-9.35421E+02-1.20825E+02 5.00000E+00
 -1      2288-9.29250E+02 1.80622E+01 5.00000E+00
 -1      2289-9.69250E+02-1.67278E+02 5.00000E+00
 -1      2290-9.11410E+02-7.45000E+02 5.50000E+01
 -1      2291-9.05000E+02-4.05100E+01 9.50000E+01
 -1      2292 8.90550E+02 6.95000E+02 5.00000E+00
 -1      2293 6.16000E+01-6.55000E+02 5.50000E+01
 -1      2294 8.30570E+02 7.45000E+02 4.50000E+01
 -1      2295 9.95000E+02 1.39610E+02 4.50000E+01
 -1      2296 2.52400E+02-6.55000E+02 5.00000E+00
 -1      2297-9.95000E+02-1.21530E+02 5.50000E+01
 -1      2298-9.95000E+02-2.20530E+02 5.00000E+00
 -1      2299 9.05000E+02-2.42400E+01 5.50000E+01
 -1      2300-1.86900E+00 5.94490E+02 2.34354E+01
 -1      2301 6.30996E-01 5.78750E+02 2.65646E+01
 -1      2302 6.30996E-01 5.58250E+02 5.00000E+01
 -1      2303 3.13100E+00 5.31719E+02 2.65646E+01
 -1      2304 6.30996E-01 5.45250E+02 2.65646E+01
 -1      2305 6.30996E-01 5.12250E+02 2.65646E+01
 -1      2306 6.30996E-01 4.50000E+02 5.00000E+01
 -1      2307 6.30996E-01 4.01500E+02 5.00000E+01
 -1      2308 3.13100E+00 3.70572E+02 5.00000E+01
 -1      2309 9.70427E+02 7.47528E+02 2.37264E+01
 -1      2310 9.19427E+02 7.47528E+02 7.37263E+01
 -1      2311 6.30996E-01 2.99750E+02 5.00000E+01
 -1      2312 3.13100E+00 3.21322E+02 5.00000E+01
 -1      2313 3.13100E+00 1.94964E+02 2.56250E+01
 -1      2314 3.13100E+00 5.93990E+02 7.65646E+01
 -1      2315 6.30996E-01 5.78500E+02 7.65646E+01
 -1      2316 3.13100E+00 5.31469E+02 7.65646E+01
 -1      2317 9.71048E+02 7.21712E+02 2.28204E+00
 -1      2318-1.86900E+00 4.82199E+02 5.00000E+01
 -1      2319 2.90420E+00 3.21411E+02 7.54725E+01
 -1      2320 2.90420E+00 3.70661E+02 7.54725E+01
 -1      2321 4.04203E-01 3.41733E+02 2.54725E+01
 -1      2322 4.04203E-01 3.42983E+02 7.54725E+01
 -1      2323 9.65427E+02 7.42528E+02 2.87264E+01
 -1      2324 9.70427E+02 7.47528E+02 7.37263E+01
 -1      2325-9.05000E+02-2.31910E+02 5.00000E+00
 -1      2326-9.05000E+02-2.15010E+02 5.50000E+01
 -1      2327-9.45000E+02-2.21230E+02 5.00000E+00
 -1      2328-9.79507E+02-1.37265E+02 5.00000E+00
 -1      2329-2.09580E+00 3.20161E+02 2.54725E+01
 -1      2330-2.09580E+00 3.21411E+02 7.54725E+01
 -1      2331-1.86900E+00 3.70572E+02 5.00000E+01
 -1      2332-2.09580E+00 3.70661E+02 7.54725E+01
 -1      2333 3.13100E+00 4.82199E+02 5.00000E+01
 -1      2334-9.05000E+02-3.58900E+01 5.00000E+00
 -1      2335-9.05000E+02-6.03100E+01 5.50000E+01
 -1      2336-9.29250E+02-1.77958E+02 5.00000E+00
 -1      2337-3.07800E+02-6.95000E+02 9.50000E+01
 -1      2338 4.75380E+00 4.72607E+02 6.45006E+01
 -1      2339-9.95000E+02-2.70300E+01 5.00000E+00
 -3
    3C                          1153                                     1
 -1      1163    6    0    1
 -2       154       331       227       330      1574      1412      1575      1576       745      1413
 -1      1164    6    0    1
 -2       218       226        57       219      1188      1577      1578       611      1189      1579
 -1      1165    6    0    1
 -2       333       129       305       304      1580      1581      1555      1554      1582       716
 -1      1166    6    0    1
 -2       332       155       303       331      1583      1584      1552       746      1585      1551
 -1      1167    6    0    1
 -2       293       294       119       285       704      1586      1587      1311      1312      1588
 -1      1168    6    0    1
 -2       332       128       304       303      1589      1590      1553      1552      1591       715
 -1      1169    6    0    1
 -2        53        52       236        67       412      1592      1593       789       794      1594
 -1      1170    6    0    1
 -2       355       277       276        72      1442       683      1445      1596      1595      1597
 -1      1171    6    0    1
 -2       283       282       269       108       692      1460      1459      1599      1598      1600
 -1      1172    6    0    1
 -2        21       123         4        94      1601       896      1602      1603       893       461
 -1      1173    6    0    1
 -2        11        36       342        12      1604       757      1606       477      1605      1607
 -1      1174    6    0    1
 -2       258       293       259        90      1386      1395       661      1609      1608      1610
 -1      1175    6    0    1
 -2       164        53       340       341       970      1611      1613      1614      1612       755
 -1      1176    6    0    1
 -2        26         7        54        29      1615       776      1617       624      1616      1618
 -1      1177    6    0    1
 -2       155       332       303       128      1583      1552      1584      1068      1589      1591
 -1      1178    6    0    1
 -2        11        36        35       342      1604       690      1619      1606       757      1528
 -1      1179    6    0    1
 -2       230        62       357        61      1620       792      1621      1622       422       793
 -1      1180    6    0    1
 -2        10        33       290        34      1623       700      1624      1625       689      1295
 -1      1181    6    0    1
 -2       225       221        58       220      1192      1626      1627      1191       613      1628
 -1      1182    6    0    1
 -2       337       239       338       161      1462      1461       752      1630      1629      1631
 -1      1183    6    0    1
 -2       110       118       293       284       863      1632      1634      1635      1633      1310
 -1      1184    6    0    1
 -2       122       296        93       262      1636      1637       908      1638      1357      1639
 -1      1185    6    0    1
 -2       129       221        58        59      1640      1626       873       876      1641       419
 -1      1186    6    0    1
 -2        21        95         4       101      1642       836      1602      1643       839       469
 -1      1187    6    0    1
 -2       309       134       161       338      1644      1081      1646      1564      1645      1631
 -1      1188    6    0    1
 -2        16        29       179       349      1647      1648       558      1649      1438      1650
 -1      1189    6    0    1
 -2        11        12       342       172       477      1607      1606      1046       550      1651
 -1      1190    6    0    1
 -2       221        45        58        59      1652       782      1626      1641       783       419
 -1      1191    6    0    1
 -2       283        81       269       268      1653      1654      1459      1450      1655       672
 -1      1192    6    0    1
 -2       145        21         4       101      1656      1602       897       901      1643       469
 -1      1193    6    0    1
 -2       107       116       282       290       853      1657      1659      1660      1658      1297
 -1      1194    6    0    1
 -2       225       221        45        58      1192      1652      1661      1627      1626       782
 -1      1195    6    0    1
 -2       240       241       232        49       639      1238      1251      1663      1662      1664
 -1      1196    6    0    1
 -2       304       221        58       129      1322      1626      1665      1582      1640       873
 -1      1197    6    0    1
 -2       176       251       346       347      1666      1491      1667      1668      1435       762
 -1      1198    6    0    1
 -2       355       327       171       356      1518      1669      1670       772      1519      1671
 -1      1199    6    0    1
 -2        73       355        72       170      1672      1596       435       976      1673       975
 -1      1200    6    0    1
 -2       145        21        11         4      1656      1674       520       897      1602       895
 -1      1201    6    0    1
 -2       248       319       149       318      1342      1675      1676      1341       731      1677
 -1      1202    6    0    1
 -2        22       269        32        80      1267       673       674      1679      1678      1680
 -1      1203    6    0    1
 -2       248       149       319       105      1676      1675      1342      1681       928      1682
 -1      1204    6    0    1
 -2        29       100       349       250      1683      1684      1438       650      1685      1436
 -1      1205    6    0    1
 -2       263       264        85       113       667      1686      1688      1689      1687      1015
 -1      1206    6    0    1
 -2        22       256        87       290       658      1690      1691      1354      1355      1692
 -1      1207    6    0    1
 -2       140       139       352       167       514      1693      1694      1042      1040      1695
 -1      1208    6    0    1
 -2        29        54       229        41      1618      1696       623      1697       778      1698
 -1      1209    6    0    1
 -2       148       318       247       104      1699      1391      1701       946      1700      1702
 -1      1210    6    0    1
 -2        40        29        16       349      1409      1647      1703       765      1438      1649
 -1      1211    6    0    1
 -2        41        54         7        29       778       776       400      1697      1618      1616
 -1      1212    6    0    1
 -2       116       108       282       291       852      1598      1657      1705      1704      1298
 -1      1213    6    0    1
 -2        72        73        79       275       435       809       810      1707      1706      1708
 -1      1214    6    0    1
 -2       337       240       239        50      1418       638      1462      1710      1709      1711
 -1      1215    6    0    1
 -2       219       218       303        57       611      1319      1320      1579      1578      1712
 -1      1216    6    0    1
 -2        46       157       388       389       961      1713      1715      1716      1714      1475
 -1      1217    6    0    1
 -2       328       229       153        41      1411      1717      1718      1719      1698       954
 -1      1218    6    0    1
 -2       219       220        57       128       612      1720      1579      1722      1721       871
 -1      1219    6    0    1
 -2       304       221       220        58      1322       613      1378      1665      1626      1628
 -1      1220    6    0    1
 -2        53        52       340       236       412      1723      1611      1593      1592      1425
 -1      1221    6    0    1
 -2        21         8         4        95      1724       444      1602      1642       462       836
 -1      1222    6    0    1
 -2       217        55       216       301      1725      1726       609      1361      1727      1317
 -1      1223    6    0    1
 -2       384        61       359       381      1728       931      1730      1401      1729      1731
 -1      1224    6    0    1
 -2       231       232       241        63       628      1238      1237      1733      1732      1734
 -1      1225    6    0    1
 -2        55        42       217       228       801      1735      1725      1737      1736      1187
 -1      1226    6    0    1
 -2       219       225        44       220      1190      1738      1739       612      1191      1740
 -1      1227    6    0    1
 -2       132       307       336       159      1741      1560      1743      1076      1742      1744
 -1      1228    6    0    1
 -2       148       247       318       317      1701      1391      1699      1745      1394       730
 -1      1229    6    0    1
 -2        73        72       355       276       435      1596      1672      1746      1597      1445
 -1      1230    6    0    1
 -2        77       142       273       274       925      1747      1749      1750      1748       679
 -1      1231    6    0    1
 -2        86         8        94        30       452       821       822      1752      1751      1753
 -1      1232    6    0    1
 -2       275       143       326        79      1754      1755      1350      1708       889      1756
 -1      1233    6    0    1
 -2       166       322       139       351      1757      1758      1039      1759      1517      1760
 -1      1234    6    0    1
 -2       167       166       139       351       544      1039      1040      1761      1759      1760
 -1      1235    6    0    1
 -2       292       258        89       118      1376      1762      1764      1765      1763       939
 -1      1236    6    0    1
 -2       206        17       183       180       595      1090      1766      1134       562      1091
 -1      1237    6    0    1
 -2       156        44       332       225       958      1767      1768      1769      1738      1417
 -1      1238    6    0    1
 -2       322       166       350       351      1757      1770      1516      1517      1759       767
 -1      1239    6    0    1
 -2       384       306       359       380      1406      1771      1730      1402      1405      1772
 -1      1240    6    0    1
 -2       306       381       131       307      1381      1773      1774       718      1382      1775
 -1      1241    6    0    1
 -2       131       307       335       306      1775      1559      1776      1774       718      1558
 -1      1242    6    0    1
 -2       315       244       101       146      1340      1777      1779      1780      1778       902
 -1      1243    6    0    1
 -2       282        32       269        80      1448       673      1460      1781      1680      1678
 -1      1244    6    0    1
 -2       139       322       270       271      1758      1347      1782      1783      1367       676
 -1      1245    6    0    1
 -2        21         8        94         4      1724       821      1603      1602       444       461
 -1      1246    6    0    1
 -2       306       381       359       131      1381      1731      1771      1774      1773       933
 -1      1247    6    0    1
 -2       333       334       305       157       748      1556      1555      1785      1784      1786
 -1      1248    6    0    1
 -2       111       120       286       294       866      1787      1789      1790      1788      1309
 -1      1249    6    0    1
 -2       331       154       302       330      1574      1791      1550       745      1576      1549
 -1      1250    6    0    1
 -2       297       262       296       122      1358      1357       707      1792      1638      1636
 -1      1251    6    0    1
 -2        10        33         9       290      1623      1793       476      1624       700      1794
 -1      1252    6    0    1
 -2       112       111       286        84       483      1789      1795      1018      1021      1796
 -1      1253    6    0    1
 -2       219       225       226        44      1190       619      1189      1739      1738      1797
 -1      1254    6    0    1
 -2       330       228       227        42      1477       621      1413      1798      1736      1799
 -1      1255    6    0    1
 -2        10        33       356         9      1623      1514      1800       476      1793      1801
 -1      1256    6    0    1
 -2       182       366       180       181      1802      1144      1094      1093      1143       563
 -1      1257    6    0    1
 -2       197        18       183        17       584       568      1112      1152       561      1090
 -1      1258    6    0    1
 -2       281       270       280        69      1283      1284       687      1804      1803      1805
 -1      1259    6    0    1
 -2        32        22         2        73       674      1806      1808      1809      1807       808
 -1      1260    6    0    1
 -2       255       343       342        95      1430       758      1431      1811      1810      1812
 -1      1261    6    0    1
 -2       152        29        16       328      1813      1647       528      1814      1408      1815
 -1      1262    6    0    1
 -2        21         8        30        94      1724      1751       657      1603       821      1753
 -1      1263    6    0    1
 -2        22         9       327        33      1816      1817      1352      1353      1793       741
 -1      1264    6    0    1
 -2       384       306       381       359      1406      1381      1401      1730      1771      1731
 -1      1265    6    0    1
 -2       319       177       347       348      1818      1819      1539      1540      1820       763
 -1      1266    6    0    1
 -2       120       112       286       295       862      1795      1787      1822      1821      1308
 -1      1267    6    0    1
 -2       297       122        94       262      1792       894      1823      1358      1638      1824
 -1      1268    6    0    1
 -2        10        33        34       356      1623       689      1625      1800      1514       773
 -1      1269    6    0    1
 -2        32        22        80         2       674      1679      1680      1808      1806       820
 -1      1270    6    0    1
 -2       292       258       118       293      1376      1763      1765       703      1386      1632
 -1      1271    6    0    1
 -2        60       384       359       380      1825      1730       934      1826      1402      1772
 -1      1272    6    0    1
 -2       251        99       250       348      1827      1828       651      1434      1829      1437
 -1      1273    6    0    1
 -2       152        16        29         7       528      1647      1813       952       951      1616
 -1      1274    6    0    1
 -2       111       119       294       285       864      1586      1790      1830      1588      1312
 -1      1275    6    0    1
 -2        90        91       119       259       457       950       947      1610      1831      1832
 -1      1276    6    0    1
 -2       177       178        99       348       556      1009      1008      1820      1833      1829
 -1      1277    6    0    1
 -2       146       145       101       315       521       901       902      1780      1834      1779
 -1      1278    6    0    1
 -2        99       178       250       348      1009      1835      1828      1829      1833      1437
 -1      1279    6    0    1
 -2        21         8        95        30      1724       462      1642       657      1751      1836
 -1      1280    6    0    1
 -2        33       356         9       327      1514      1801      1793       741      1519      1817
 -1      1281    6    0    1
 -2       230        62        61       358      1620       422      1622      1837       914       913
 -1      1282    6    0    1
 -2        73        22         2        79      1807      1806       808       809      1838       443
 -1      1283    6    0    1
 -2       317       316       147       246       729      1839      1840      1390      1372      1841
 -1      1284    6    0    1
 -2       216        55       125       301      1726       917      1842      1317      1727      1843
 -1      1285    6    0    1
 -2       300       153       301       125      1844      1845       712      1846      1084      1843
 -1      1286    6    0    1
 -2       136        67       312       235       884      1847      1849      1850      1848      1333
 -1      1287    6    0    1
 -2       139       138        74       270       513       887       886      1782      1851      1852
 -1      1288    6    0    1
 -2        45       156       333       225       959      1853      1854      1661      1769      1416
 -1      1289    6    0    1
 -2       311       310       339       135       722      1566      1567      1856      1855      1857
 -1      1290    6    0    1
 -2        75       139       270       271       909      1782      1858      1859      1783       676
 -1      1291    6    0    1
 -2       363       366       182       190      1860      1802      1115      1117      1861      1106
 -1      1292    6    0    1
 -2       364       199       361       191      1862      1113      1863      1864      1107      1108
 -1      1293    6    0    1
 -2       268       269        88        81       672      1865      1866      1655      1654       825
 -1      1294    6    0    1
 -2       363       197       183       206      1118      1112      1114      1867      1154      1766
 -1      1295    6    0    1
 -2       145        21       314        11      1656      1338      1868       520      1674      1869
 -1      1296    6    0    1
 -2        22         9         2       327      1816       890      1806      1352      1817      1870
 -1      1297    6    0    1
 -2        19       182       181       190       566      1093      1092       576      1106      1871
 -1      1298    6    0    1
 -2       389        45       157       333      1872       960      1714      1499      1854      1785
 -1      1299    6    0    1
 -2        89       267       268        82      1873       671      1875       830      1874      1876
 -1      1300    6    0    1
 -2        26         7         3        54      1615       398      1877      1617       776       414
 -1      1301    6    0    1
 -2       130       334       305       306      1878      1556      1879      1880      1557       717
 -1      1302    6    0    1
 -2       156       333       304       129      1853      1554      1881      1070      1580      1582
 -1      1303    6    0    1
 -2        41       228       229       153      1882       622      1698       954      1883      1717
 -1      1304    6    0    1
 -2        16       179        29         7       558      1648      1647       951       991      1616
 -1      1305    6    0    1
 -2       333       388       157       389      1490      1713      1785      1499      1475      1714
 -1      1306    6    0    1
 -2       300       301       153       329       712      1845      1844      1548      1572      1884
 -1      1307    6    0    1
 -2        14       393       164       341      1885      1886       541      1888      1887      1614
 -1      1308    6    0    1
 -2       109       284       283       292      1889       693      1890      1891      1307      1306
 -1      1309    6    0    1
 -2        22         9       290         2      1816      1794      1354      1806       890      1892
 -1      1310    6    0    1
 -2        22         9        33       290      1816      1793      1353      1354      1794       700
 -1      1311    6    0    1
 -2       333       388       334       157      1490      1489       748      1785      1713      1784
 -1      1312    6    0    1
 -2       363       183       182       180      1114       567      1115      1893      1091      1094
 -1      1313    6    0    1
 -2       274       278        71       277      1292      1894      1895      1286       684      1896
 -1      1314    6    0    1
 -2        50       239       337       161      1711      1462      1710       968      1629      1630
 -1      1315    6    0    1
 -2         7       100       179        29       468       990       991      1616      1683      1648
 -1      1316    6    0    1
 -2       220       219       304       128       612      1321      1378      1721      1722      1590
 -1      1317    6    0    1
 -2       277       355       354        72      1442       771      1443      1595      1596      1897
 -1      1318    6    0    1
 -2        26         7       100         3      1615       468      1898      1877       398       837
 -1      1319    6    0    1
 -2       309       133       308       337      1899      1900       720      1563      1901      1562
 -1      1320    6    0    1
 -2        86       288       114       289      1902      1903       995      1904       698      1905
 -1      1321    6    0    1
 -2       239       232       233        64      1239       629      1240      1907      1906      1908
 -1      1322    6    0    1
 -2        87       290         2        22      1692      1892       453      1691      1354      1806
 -1      1323    6    0    1
 -2       166       167        69       351       544      1003       996      1759      1761      1909
 -1      1324    6    0    1
 -2       104       318       248       149      1700      1341      1910       942      1677      1676
 -1      1325    6    0    1
 -2       331       155       303       127      1585      1584      1551      1911      1065      1912
 -1      1326    6    0    1
 -2        98       247       248       104      1913       647      1914       847      1702      1910
 -1      1327    6    0    1
 -2        98       247       252       248      1913      1264      1915      1914       647      1265
 -1      1328    6    0    1
 -2       227       228       217        42       621      1187      1202      1799      1736      1735
 -1      1329    6    0    1
 -2       274       143       275        78      1916      1754       680      1917       910      1918
 -1      1330    6    0    1
 -2       107        32         6        10      1919      1920       980       478      1921       979
 -1      1331    6    0    1
 -2       147       146       245       316       522      1922      1924      1839      1923      1373
 -1      1332    6    0    1
 -2       160       308       337       336      1925      1562      1926      1927      1561       751
 -1      1333    6    0    1
 -2       350        31       281        68      1439       688      1457      1929      1928      1930
 -1      1334    6    0    1
 -2       332       156       304       128      1768      1881      1553      1589      1067      1590
 -1      1335    6    0    1
 -2       331       127       303       302      1911      1912      1551      1550      1931       714
 -1      1336    6    0    1
 -2       234       310       311       135      1330       722      1331      1932      1855      1856
 -1      1337    6    0    1
 -2       342       343       172        95       758      1933      1651      1812      1810       985
 -1      1338    6    0    1
 -2        32        10        34       356      1921      1625      1446      1447      1800       773
 -1      1339    6    0    1
 -2        86       288       289       263      1902       698      1904      1934      1452      1451
 -1      1340    6    0    1
 -2       345       147       317       316      1935      1840      1542      1536      1839       729
 -1      1341    6    0    1
 -2       232       241        63        49      1238      1734      1732      1664      1662       786
 -1      1342    6    0    1
 -2       344       174       173        96      1936       552      1937      1938       988       987
 -1      1343    6    0    1
 -2       355       356       171        73       772      1671      1670      1672      1939       977
 -1      1344    6    0    1
 -2       122       288       296       297      1940      1301      1636      1792      1302       707
 -1      1345    6    0    1
 -2       299        15       124         3      1941       497      1942      1943       868       867
 -1      1346    6    0    1
 -2        12         8       115        36       983       982       487      1605      1944      1945
 -1      1347    6    0    1
 -2       334       387       158       388      1488      1946      1947      1489      1495      1948
 -1      1348    6    0    1
 -2       130       306       382       359      1880      1380      1949       935      1771      1950
 -1      1349    6    0    1
 -2       198       361       215       214      1116      1951      1953      1954      1952       605
 -1      1350    6    0    1
 -2       318       176       346       347      1955      1667      1537      1538      1668       762
 -1      1351    6    0    1
 -2        32        10       282        34      1921      1956      1448      1446      1625       691
 -1      1352    6    0    1
 -2        11        21       314        35      1674      1338      1869      1619      1337       726
 -1      1353    6    0    1
 -2       274       275       143       326       680      1754      1916      1349      1350      1755
 -1      1354    6    0    1
 -2       108       283        81       269      1599      1653       993      1600      1459      1654
 -1      1355    6    0    1
 -2       107        32        80         6      1919      1680       992       980      1920       445
 -1      1356    6    0    1
 -2        69        68       166       281       431       973       996      1804      1930      1957
 -1      1357    6    0    1
 -2       200       199       364       191      1958      1862      1125      1153      1107      1864
 -1      1358    6    0    1
 -2       221       129       305        59      1640      1581      1323      1641       876      1959
 -1      1359    6    0    1
 -2        52        66       237       235       795      1960      1962      1963      1961      1242
 -1      1360    6    0    1
 -2        19       213       190       181      1205      1207       576      1092      1141      1871
 -1      1361    6    0    1
 -2        87         2       290       116       453      1892      1692       905       892      1658
 -1      1362    6    0    1
 -2       267       257        89       268      1274      1964      1873       671      1270      1875
 -1      1363    6    0    1
 -2       305       130       382        59      1879      1949      1379      1959       875      1965
 -1      1364    6    0    1
 -2       140       272       324       323      1966      1393      1967      1968      1384       737
 -1      1365    6    0    1
 -2        40       299        15        16      1544      1941      1970      1703      1969       560
 -1      1366    6    0    1
 -2       328       153       229       329      1718      1717      1411       743      1884      1410
 -1      1367    6    0    1
 -2       281       166       350        68      1957      1770      1457      1930       973      1929
 -1      1368    6    0    1
 -2       126       330       301       302      1971      1573      1972      1973      1549       713
 -1      1369    6    0    1
 -2       220        44        57        58      1740       780      1720      1628       781       418
 -1      1370    6    0    1
 -2       151       349       178       320      1974      1975      1057      1976      1530      1977
 -1      1371    6    0    1
 -2       221       305       382        59      1323      1379      1388      1641      1959      1965
 -1      1372    6    0    1
 -2       151       349       179       178      1974      1650      1048      1057      1975       557
 -1      1373    6    0    1
 -2       111       112       286       120       483      1795      1789       866       862      1787
 -1      1374    6    0    1
 -2       353       142       324       168      1978      1979      1526      1980      1044      1981
 -1      1375    6    0    1
 -2       261       263        85        93      1271      1688      1983      1984      1982       826
 -1      1376    6    0    1
 -2       107        32       282        80      1919      1448      1659       992      1680      1781
 -1      1377    6    0    1
 -2       255       244        96       101      1255      1985      1986      1987      1777       840
 -1      1378    6    0    1
 -2       147       146       316       344       522      1923      1839      1989      1988      1535
 -1      1379    6    0    1
 -2       366       363       182       180      1860      1115      1802      1144      1893      1094
 -1      1380    6    0    1
 -2       363       206       183       180      1867      1766      1114      1893      1134      1091
 -1      1381    6    0    1
 -2       111       265       286        84      1990      1493      1789      1021      1991      1796
 -1      1382    6    0    1
 -2       261       263       264        85      1271       667      1276      1983      1688      1686
 -1      1383    6    0    1
 -2        66       311       235       136      1992      1332      1961       881      1993      1850
 -1      1384    6    0    1
 -2       243       242       386        48       641      1466      1465      1995      1994      1996
 -1      1385    6    0    1
 -2       151       349        15       179      1974      1997       527      1048      1650      1047
 -1      1386    6    0    1
 -2       113       112       121       287       484       860       858      1999      1998      2000
 -1      1387    6    0    1
 -2       349       250       178       348      1436      1835      1975       764      1437      1833
 -1      1388    6    0    1
 -2       163       312       311       136      2001       723      2002      1082      1849      1993
 -1      1389    6    0    1
 -2       153       300       328       152      1844      1547      1718       529      2003      1814
 -1      1390    6    0    1
 -2        11        21       123         4      1674      1601       496       895      1602       896
 -1      1391    6    0    1
 -2       257       291       292       117      1368       702      1375      2005      2004      2006
 -1      1392    6    0    1
 -2       151       349       320        15      1974      1530      1976       527      1997      2007
 -1      1393    6    0    1
 -2       131       359       358       381       933       932       921      1773      1731      2008
 -1      1394    6    0    1
 -2        59        46        60       373       784       791       420      2010      2009      2011
 -1      1395    6    0    1
 -2       200       364       199       214      1125      1862      1958      1123      1145      2012
 -1      1396    6    0    1
 -2       107        32        10       282      1919      1921       478      1659      1448      1956
 -1      1397    6    0    1
 -2         6        32        80         2      1920      1680       445       429      1808       820
 -1      1398    6    0    1
 -2       281       350       166       351      1457      1770      1957      1456       767      1759
 -1      1399    6    0    1
 -2       334       387       335       158      1488      1487       749      1947      1946      2013
 -1      1400    6    0    1
 -2       281        74        68        23      2014       811      1930      1282      2015      2016
 -1      1401    6    0    1
 -2         8       289        36        30      2017       699      1944      1751      1453      1429
 -1      1402    6    0    1
 -2       106       105        99       249       474       843       842      2019      2018      2020
 -1      1403    6    0    1
 -2       299        40       328        16      1544       742      1546      1969      1703      1815
 -1      1404    6    0    1
 -2        16       349       179        15      1649      1650       558       560      1997      1047
 -1      1405    6    0    1
 -2       224        59        45       221      2021       783      2022      1203      1641      1652
 -1      1406    6    0    1
 -2       224        59        46        45      2021       784      2023      2022       783       405
 -1      1407    6    0    1
 -2       224        59       373        46      2021      2010      1199      2023       784      2009
 -1      1408    6    0    1
 -2       240        50       337       160      1709      1710      1418      2024       967      1926
 -1      1409    6    0    1
 -2       134       233        65       310      2025      2026       916      2027      1329      2028
 -1      1410    6    0    1
 -2       218        56       302       127      2029      2030      1318      2031       911      1931
 -1      1411    6    0    1
 -2       251        99       249       250      1827      2020      1259       651      1828      1260
 -1      1412    6    0    1
 -2       295       261        92       121      1385      2032      2034      2035      2033       930
 -1      1413    6    0    1
 -2       182       366       181       190      1802      1143      1093      1106      1861      1871
 -1      1414    6    0    1
 -2       322       352       139       351      1521      1693      1758      1517       768      1760
 -1      1415    6    0    1
 -2        56       218       302       217      2029      1318      2030      2036       610      1362
 -1      1416    6    0    1
 -2        22        87        80         2      1691       823      1679      1806       453       820
 -1      1417    6    0    1
 -2       152       299       328        16      2037      1546      1814       528      1969      1815
 -1      1418    6    0    1
 -2       189       190       366       363       575      1861      2038      1120      1117      1860
 -1      1419    6    0    1
 -2       217       301       302       126      1361       713      1362      2039      1972      1973
 -1      1420    6    0    1
 -2       144         9       327         2       519      1817      2040       891       890      1870
 -1      1421    6    0    1
 -2       154       330       126       302      1576      1971      1088      1791      1549      1973
 -1      1422    6    0    1
 -2        10       107       282       290       478      1659      1956      1624      1660      1297
 -1      1423    6    0    1
 -2        60       384       380        25      1825      1402      1826      2041      1399      1363
 -1      1424    6    0    1
 -2         8        36       289       115      1944       699      2017       982      1945      2042
 -1      1425    6    0    1
 -2       282       116       291       290      1657      1705      1298      1297      1658       701
 -1      1426    6    0    1
 -2       233       234       238        65       630      1245      1246      2026      2043      2044
 -1      1427    6    0    1
 -2       222        60       380        25      2045      1826      1364       615      2041      1363
 -1      1428    6    0    1
 -2       342        12         8       172      1607       983      2046      1651       550       984
 -1      1429    6    0    1
 -2       222       199       373        60      1195      1201      1194      2045      2047      2011
 -1      1430    6    0    1
 -2       358       359        61       381       932       931       913      2008      1731      1729
 -1      1431    6    0    1
 -2        52       340       237       339      1723      1422      1962      2048       754      1423
 -1      1432    6    0    1
 -2       300       153       328       329      1844      1718      1547      1548      1884       743
 -1      1433    6    0    1
 -2        15       152       299       124      1062      2037      1941       497      1080      1942
 -1      1434    6    0    1
 -2       311       312       235       136       723      1333      1332      1993      1849      1850
 -1      1435    6    0    1
 -2        78        71       277       274       815      1896      2049      1917      1895      1286
 -1      1436    6    0    1
 -2        55       217       216       228      1725       609      1726      1737      1187      1186
 -1      1437    6    0    1
 -2       310       162       339       135      2050      2051      1566      1855      1086      1857
 -1      1438    6    0    1
 -2        52       163       340       339       998      2052      1723      2048      2053       754
 -1      1439    6    0    1
 -2       334       130       158       306      1878      1071      1947      1557      1880      2054
 -1      1440    6    0    1
 -2       254       244        96       255      1256      1985      2055       655      1255      1986
 -1      1441    6    0    1
 -2       254       244       102        96      1256      2056      2057      2055      1985       841
 -1      1442    6    0    1
 -2       224        59       221       373      2021      1641      1203      1199      2010      1193
 -1      1443    6    0    1
 -2        34        10       282       290      1625      1956       691      1295      1624      1297
 -1      1444    6    0    1
 -2       232        64       239       240      1906      1907      1239      1251      2058       638
 -1      1445    6    0    1
 -2       243       242        48       379       641      1994      1995      1248      1247      2059
 -1      1446    6    0    1
 -2       389       223       388        46      1474      1471      1475      1716      2060      1715
 -1      1447    6    0    1
 -2        21       123        94       297      1601       893      1603      1370      2061      1823
 -1      1448    6    0    1
 -2        54       300       216       125      2062      1316      2063       869      1846      1842
 -1      1449    6    0    1
 -2       256        80        88       269      2064       824      2065      1268      1678      1865
 -1      1450    6    0    1
 -2       292       293       118       284       703      1632      1765      1307      1310      1633
 -1      1451    6    0    1
 -2       174       344       173       146      1936      1937       552      1051      1988      1052
 -1      1452    6    0    1
 -2       103       317       147       246      2066      1840       929      2067      1390      1841
 -1      1453    6    0    1
 -2       320       151        15         3      1976       527      2007      2068       900       868
 -1      1454    6    0    1
 -2       386       336       159       385      1480      1744      2069      1467      1498      2070
 -1      1455    6    0    1
 -2        26         7        29       100      1615      1616       624      1898       468      1683
 -1      1456    6    0    1
 -2         8       342        95        30      2046      1812       462      1751      1428      1836
 -1      1457    6    0    1
 -2       386       336       335       159      1480       750      1481      2069      1744      2071
 -1      1458    6    0    1
 -2        44       220       225        58      1740      1191      1738       781      1628      1627
 -1      1459    6    0    1
 -2       147       146       344       174       522      1988      1989      1054      1051      1936
 -1      1460    6    0    1
 -2         8        95       342       172       462      1812      2046       984       985      1651
 -1      1461    6    0    1
 -2       333       156       304       332      1853      1881      1554       747      1768      1553
 -1      1462    6    0    1
 -2       249       105       251       248      2018      2072      1259       648      1681      1258
 -1      1463    6    0    1
 -2       272       278       279        70      1294       685      1293      2074      2073      2075
 -1      1464    6    0    1
 -2         9       356       171       327      1801      1671      1032      1817      1519      1669
 -1      1465    6    0    1
 -2       128       220        57        58      1721      1720       871       874      1628       418
 -1      1466    6    0    1
 -2         9       356        10       171      1801      1800       476      1032      1671       549
 -1      1467    6    0    1
 -2        15       152        16       299      1062       528       560      1941      2037      1969
 -1      1468    6    0    1
 -2       379       230       231        62      1235       627      1236      2076      1620      2077
 -1      1469    6    0    1
 -2        61       230       381        24      1622      1365      1729      2078       626      1366
 -1      1470    6    0    1
 -2       278       277       354        71       684      1443      1454      1894      1896      2079
 -1      1471    6    0    1
 -2       141       142       168       324       516      1044      1043      2080      1979      1981
 -1      1472    6    0    1
 -2       300       301       216       125       712      1317      1316      1846      1843      1842
 -1      1473    6    0    1
 -2       206       363       205       366      1867      2081       594      1146      1860      1148
 -1      1474    6    0    1
 -2       206       197       183        17      1154      1112      1766       595      1152      1090
 -1      1475    6    0    1
 -2       306       334       335       158      1557       749      1558      2054      1947      2013
 -1      1476    6    0    1
 -2       113       112       287       264       484      1998      1999      1687      2082      1486
 -1      1477    6    0    1
 -2       349       178       250       100      1975      1835      1436      1684       989      1685
 -1      1478    6    0    1
 -2       163       311       312       340      2002       723      2001      2052      1568      1569
 -1      1479    6    0    1
 -2       155        44       226       332       957      1797      2083      1583      1767      1414
 -1      1480    6    0    1
 -2       383       307       358       381      1407      2084      2085      1397      1382      2008
 -1      1481    6    0    1
 -2       265       112       286        84      2086      1795      1493      1991      1018      1796
 -1      1482    6    0    1
 -2       256        80        87        88      2064       823      1690      2065       824       454
 -1      1483    6    0    1
 -2       104       248       318       247      1910      1341      1700      1702       647      1391
 -1      1484    6    0    1
 -2       200       199       191        24      1958      1107      1153       588      2087      1151
 -1      1485    6    0    1
 -2       206       205       363       368       594      2081      1867      1157      1182      2088
 -1      1486    6    0    1
 -2       287       286       112       295       696      1795      1998      1305      1308      1821
 -1      1487    6    0    1
 -2       141       142       324       273       516      1979      2080      2089      1747      1383
 -1      1488    6    0    1
 -2       121       112       295       287       860      1821      2035      2000      1998      1305
 -1      1489    6    0    1
 -2       155       332       226       331      1583      1414      2083      1585       746      1415
 -1      1490    6    0    1
 -2       108       283       282       291      1599       692      1598      1704      1299      1298
 -1      1491    6    0    1
 -2       256        80        22        87      2064      1679       658      1690       823      1691
 -1      1492    6    0    1
 -2        10         9       107       290       476       849       478      1624      1794      1660
 -1      1493    6    0    1
 -2        69       271        75       270      2090      1859       814      1803       676      1858
 -1      1494    6    0    1
 -2        69       271       279        75      2090      1289      2091       814      1859      2092
 -1      1495    6    0    1
 -2       117       109       283       292       859      1890      2093      2006      1891      1306
 -1      1496    6    0    1
 -2       132       231        63       308      2094      1733       878      2095      1325      2096
 -1      1497    6    0    1
 -2        42       154       227       330      1011      1575      1799      1798      1576      1413
 -1      1498    6    0    1
 -2       256        80       269        22      2064      1678      1268       658      1679      1267
 -1      1499    6    0    1
 -2       311       234       135        66      1331      1932      1856      1992      2097       882
 -1      1500    6    0    1
 -2        21       297        94       262      1370      1823      1603       665      1358      1824
 -1      1501    6    0    1
 -2        86       289         8        30      1904      2017       452      1752      1453      1751
 -1      1502    6    0    1
 -2       352       323       140       324      1523      1968      1694      1527       737      1967
 -1      1503    6    0    1
 -2        28       387        47       243      1468      2098      2099       642      1469      2100
 -1      1504    6    0    1
 -2       176       317       148       318      2101      1745      1061      1955       730      1699
 -1      1505    6    0    1
 -2       125       152       300       153      1083      2003      1846      1084       529      1844
 -1      1506    6    0    1
 -2       133       232       308        63      2102      1326      1900       877      1732      2096
 -1      1507    6    0    1
 -2       199        25       191        24       587       577      1107      2087       607      1151
 -1      1508    6    0    1
 -2       316       245       315       146      1373      1371       728      1923      1922      1780
 -1      1509    6    0    1
 -2       141       142       273        77       516      1747      2089       941       925      1749
 -1      1510    6    0    1
 -2        28       387       390        47      1468      1505      1497      2099      2098      2103
 -1      1511    6    0    1
 -2       170       326       144       355      2104      2105      1034      1673      1520      2106
 -1      1512    6    0    1
 -2       310       134       309       338      2027      1644       721      1565      1645      1564
 -1      1513    6    0    1
 -2        52        67       235       236       794      1848      1963      1592      1594      1243
 -1      1514    6    0    1
 -2       355        73       171       170      1672       977      1670      1673       976       548
 -1      1515    6    0    1
 -2       223       373        46       224      1198      2009      2060       617      1199      2023
 -1      1516    6    0    1
 -2       281        74        69        68      2014       813      1804      1930       811       431
 -1      1517    6    0    1
 -2       224       333        45       389      1476      1854      2022      1473      1499      1872
 -1      1518    6    0    1
 -2       224       333       225        45      1476      1416       618      2022      1854      1661
 -1      1519    6    0    1
 -2       232       133       309        64      2102      1899      1327      1906       880      2107
 -1      1520    6    0    1
 -2       264        85        92       261      1686       829      2108      1276      1983      2032
 -1      1521    6    0    1
 -2       143       354       325       326      2109      1524      2110      1755      1522       739
 -1      1522    6    0    1
 -2       311       235       234        66      1332       631      1331      1992      1961      2097
 -1      1523    6    0    1
 -2        69       271       280       279      2090      1285      1805      2091      1289       686
 -1      1524    6    0    1
 -2        16        40       349        15      1703       765      1649       560      1970      1997
 -1      1525    6    0    1
 -2       176        98       346       252      1026      2111      1667      2112      1915      1494
 -1      1526    6    0    1
 -2       249       251       105        99      1259      2072      2018      2020      1827       843
 -1      1527    6    0    1
 -2       281        74       270        69      2014      1852      1283      1804       813      1803
 -1      1528    6    0    1
 -2       231       230       383        62       627      1396      1400      2077      1620      2113
 -1      1529    6    0    1
 -2       147       245       146       102      1924      1922       522       927      2114       903
 -1      1530    6    0    1
 -2       281        74        23       270      2014      2015      1282      1283      1852       675
 -1      1531    6    0    1
 -2       227       218       226        43      1200      1188       620      2116      2115      2117
 -1      1532    6    0    1
 -2       354       355       170        72       771      1673      2118      1897      1596       975
 -1      1533    6    0    1
 -2       384        61       381        24      1728      1729      1401      1398      2078      1366
 -1      1534    6    0    1
 -2        32        73         2         6      1809       808      1808      1920       436       429
 -1      1535    6    0    1
 -2       275       327        79       326      1351      2119      1708      1350       740      1756
 -1      1536    6    0    1
 -2       331       227       226        43      1412       620      1415      2120      2116      2117
 -1      1537    6    0    1
 -2        69       352       279       280      2121      1455      2091      1805      1440       686
 -1      1538    6    0    1
 -2       382       305       306       130      1379       717      1380      1949      1879      1880
 -1      1539    6    0    1
 -2        69       271       270       280      2090       676      1803      1805      1285      1284
 -1      1540    6    0    1
 -2       327       144        79       326      2040       888      2119       740      2105      1756
 -1      1541    6    0    1
 -2       342        12        36         8      1607      1605       757      2046       983      1944
 -1      1542    6    0    1
 -2       227       217        56        42      1202      2036      2122      1799      1735       796
 -1      1543    6    0    1
 -2       287       265       264       112      1492       668      1486      1998      2086      2082
 -1      1544    6    0    1
 -2       353       142       325       324      1978      2123      1525      1526      1979       738
 -1      1545    6    0    1
 -2       176       317       318       346      2101       730      1955      1667      1543      1537
 -1      1546    6    0    1
 -2       288       287       113       296       697      1999      2124      1301      1300      2125
 -1      1547    6    0    1
 -2       110       119       285       293       865      1588      2126      1634      1587      1311
 -1      1548    6    0    1
 -2       227       217       218        56      1202       610      1200      2122      2036      2029
 -1      1549    6    0    1
 -2        99       347       348       251      2127       763      1829      1827      1435      1434
 -1      1550    6    0    1
 -2        99       347       177       348      2127      1819      1008      1829       763      1820
 -1      1551    6    0    1
 -2       229        41       328        29      1698      1719      1411       623      1697      1408
 -1      1552    6    0    1
 -2       389       223        46       224      1474      2060      1716      1473       617      2023
 -1      1553    6    0    1
 -2       170       326       143       144      2104      1755      1036      1034      2105       518
 -1      1554    6    0    1
 -2       327        79         2        22      2119       443      1870      1352      1838      1806
 -1      1555    6    0    1
 -2       142       274       143       325      1748      1916       517      2123      1348      2110
 -1      1556    6    0    1
 -2       170       326       354       143      2104      1522      2118      1036      1755      2109
 -1      1557    6    0    1
 -2       170       326       355       354      2104      1520      1673      2118      1522       771
 -1      1558    6    0    1
 -2       271       323       139       322      1374      2128      1783      1367       736      1758
 -1      1559    6    0    1
 -2       343       344       173        96       759      1937      2129      2130      1938       987
 -1      1560    6    0    1
 -2       327         2        79       144      1870       443      2119      2040       891       888
 -1      1561    6    0    1
 -2        41       152       328        29       953      1814      1719      1697      1813      1408
 -1      1562    6    0    1
 -2       218       127       303        57      2031      1912      1319      1578       872      1712
 -1      1563    6    0    1
 -2       242       241       385        48       640      1464      1463      1994      2131      2132
 -1      1564    6    0    1
 -2       142       274       325       273      1748      1348      2123      1747       679      1360
 -1      1565    6    0    1
 -2       266       111       285        83      2133      1830      1503      2134      1024      2135
 -1      1566    6    0    1
 -2       344       345       316       147       760      1536      1535      1989      1935      1839
 -1      1567    6    0    1
 -2       283       268       284       109      1450      1449       693      1890      2136      1889
 -1      1568    6    0    1
 -2        99       347       176       177      2127      1668      1025      1008      1819       555
 -1      1569    6    0    1
 -2        23       321       270       138      1345      1346       675      2138      2137      1851
 -1      1570    6    0    1
 -2       332       225       333       156      1417      1416       747      1768      1769      1853
 -1      1571    6    0    1
 -2       244       145       101        21      2139       901      1777       643      1656      1643
 -1      1572    6    0    1
 -2        48       243       379       357      1995      1248      2059       799      2140      2141
 -1      1573    6    0    1
 -2       205       196       189       363      1166      1104      2142      2081      1121      1120
 -1      1574    6    0    1
 -2        74        23       270       138      2015       675      1852       887      2138      1851
 -1      1575    6    0    1
 -2        99       347       251       176      2127      1435      1827      1025      1668      1666
 -1      1576    6    0    1
 -2       321       322       270       138       735      1347      1346      2137      2143      1851
 -1      1577    6    0    1
 -2        44       220        57       219      1740      1720       780      1739       612      1579
 -1      1578    6    0    1
 -2       308       133       160       337      1900      1078      1925      1562      1901      1926
 -1      1579    6    0    1
 -2       309       232       308       133      1327      1326       720      1899      2102      1900
 -1      1580    6    0    1
 -2       166       165       350        68       543      2144      1770       973       972      1929
 -1      1581    6    0    1
 -2       287       265       112       286      1492      2086      1998       696      1493      1795
 -1      1582    6    0    1
 -2        32       356       276        73      1447      1444       682      1809      1939      1746
 -1      1583    6    0    1
 -2       244       145       315       101      2139      1834      1340      1777       901      1779
 -1      1584    6    0    1
 -2       373       222        60        59      1194      2045      2011      2010      2145       420
 -1      1585    6    0    1
 -2       268       267       284        82       671      1458      1449      1876      1874      2146
 -1      1586    6    0    1
 -2       355       144       327       326      2106      2040      1518      1520      2105       740
 -1      1587    6    0    1
 -2       291        87       290       116      2147      1692       701      1705       905      1658
 -1      1588    6    0    1
 -2        69       352       351       167      2121       768      1909      1003      1695      1761
 -1      1589    6    0    1
 -2       344       316       315       146      1535       728      1534      1988      1923      1780
 -1      1590    6    0    1
 -2        60       222       382        59      2045      1387      2148       420      2145      1965
 -1      1591    6    0    1
 -2       154        43       227       331       955      2116      1575      1574      2120      1412
 -1      1592    6    0    1
 -2        72        73       275       276       435      1706      1707      1597      1746      1290
 -1      1593    6    0    1
 -2        62       307       358       383      2149      2084       914      2113      1407      2085
 -1      1594    6    0    1
 -2       244       145       314       315      2139      1868      1339      1340      1834       727
 -1      1595    6    0    1
 -2       221       222       373        59       614      1194      1193      1641      2145      2010
 -1      1596    6    0    1
 -2       322       165       138       321      2150      1035      2143       735      2151      2137
 -1      1597    6    0    1
 -2       244       145        21       314      2139      1656       643      1339      1868      1338
 -1      1598    6    0    1
 -2        91       119       259       294       950      1832      1831      2152      1586      1403
 -1      1599    6    0    1
 -2       307       131       358       381      1775       921      2084      1382      1773      2008
 -1      1600    6    0    1
 -2       289        86       263        30      1904      1934      1451      1453      1752       666
 -1      1601    6    0    1
 -2       222       221       382        59       614      1388      1387      2145      1641      1965
 -1      1602    6    0    1
 -2        41       153       328       152       954      1718      1719       953       529      1814
 -1      1603    6    0    1
 -2       161       133       309       337      1077      1899      1646      1630      1901      1563
 -1      1604    6    0    1
 -2        70       353       278       279      2153      1484      2073      2075      1500       685
 -1      1605    6    0    1
 -2       322       165       166       138      2150       543      1757      2143      1035      1037
 -1      1606    6    0    1
 -2       278       354       353        71      1454       770      1484      1894      2079      2154
 -1      1607    6    0    1
 -2       322       165       350       166      2150      2144      1516      1757       543      1770
 -1      1608    6    0    1
 -2       143       274       326       325      1916      1349      1755      2110      1348       739
 -1      1609    6    0    1
 -2       288       264       263       113      1485       667      1452      2124      1687      1689
 -1      1610    6    0    1
 -2        44       219        57       226      1739      1579       780      1797      1189      1577
 -1      1611    6    0    1
 -2       343       173       172        95      2129       551      1933      1810       986       985
 -1      1612    6    0    1
 -2       322       165       321       350      2150      2151       735      1516      2144      1515
 -1      1613    6    0    1
 -2       161       309       338       337      1646      1564      1631      1630      1563       752
 -1      1614    6    0    1
 -2        62       307       132       358      2149      1741       915       914      2084       920
 -1      1615    6    0    1
 -2        69       352       280       351      2121      1440      1805      1909       768      1441
 -1      1616    6    0    1
 -2        62       307       231       132      2149      1324      2077       915      1741      2094
 -1      1617    6    0    1
 -2       245       254       244       102      1257      1256       644      2114      2057      2056
 -1      1618    6    0    1
 -2       181       366       213       190      1143      1147      1141      1871      1861      1207
 -1      1619    6    0    1
 -2        56       217       302       126      2036      1362      2030       918      2039      1973
 -1      1620    6    0    1
 -2       358       230       383       381      1837      1396      2085      2008      1365      1397
 -1      1621    6    0    1
 -2       288       264       113       287      1485      1687      2124       697      1486      1999
 -1      1622    6    0    1
 -2       303       304       219       128       715      1321      1320      1591      1590      1722
 -1      1623    6    0    1
 -2        43        56       227       218       790      2122      2116      2115      2029      1200
 -1      1624    6    0    1
 -2       150       348       177       319      2155      1820      1056      2156      1540      1818
 -1      1625    6    0    1
 -2       163       311       340       339      2002      1568      2052      2053      1567       754
 -1      1626    6    0    1
 -2       149       347       176       318      2157      1668      1059      1677      1538      1955
 -1      1627    6    0    1
 -2       329       153       229       228      1884      1717      1410      1478      1883       622
 -1      1628    6    0    1
 -2       293       259        90       119      1395      1610      1608      1587      1832       947
 -1      1629    6    0    1
 -2       123       289       114       297      2158      1905       856      2061      1303      2159
 -1      1630    6    0    1
 -2       154       331       302       127      1574      1550      1791      1066      1911      1931
 -1      1631    6    0    1
 -2       342       255        95        30      1431      1811      1812      1428       656      1836
 -1      1632    6    0    1
 -2        72        71       354       277       434      2079      1897      1595      1896      1443
 -1      1633    6    0    1
 -2       230        61       381       358      1622      1729      1365      1837       913      2008
 -1      1634    6    0    1
 -2       150       348       178       177      2155      1833      1055      1056      1820       556
 -1      1635    6    0    1
 -2       198       223       373        46      1196      1198      1197      2160      2060      2009
 -1      1636    6    0    1
 -2       122       288       297       114      1940      1302      1792       854      1903      2159
 -1      1637    6    0    1
 -2       263       261       262        93      1271       664      1272      1982      1984      1639
 -1      1638    6    0    1
 -2       109       108       283        81       480      1599      1890       999       993      1653
 -1      1639    6    0    1
 -2       189       205       363       366      2142      2081      1120      2038      1148      1860
 -1      1640    6    0    1
 -2        62       307       383       231      2149      1407      2113      2077      1324      1400
 -1      1641    6    0    1
 -2       131       306       335       158      1774      1558      1776      1074      2054      2013
 -1      1642    6    0    1
 -2        62       230       357       379      1620      1621       792      2076      1235      2141
 -1      1643    6    0    1
 -2        86       289       114         8      1904      1905       995       452      2017       981
 -1      1644    6    0    1
 -2       105       319       248       249      1682      1342      1681      2018      1343       648
 -1      1645    6    0    1
 -2       150       348       320       178      2155      1541      2161      1055      1833      1977
 -1      1646    6    0    1
 -2       241       242       379        48       640      1247      1252      2131      1994      2059
 -1      1647    6    0    1
 -2        72        71       277        78       434      1896      1595       812       815      2049
 -1      1648    6    0    1
 -2        21       255       101       244      1254      1987      1643       643      1255      1777
 -1      1649    6    0    1
 -2       273       142       324       325      1747      1979      1383      1360      2123       738
 -1      1650    6    0    1
 -2       363       197       206       368      1118      1154      1867      2088      1158      1157
 -1      1651    6    0    1
 -2       320       150       151       106      2161       526      1976      2162       899       898
 -1      1652    6    0    1
 -2        29       100       179       349      1683       990      1648      1438      1684      1650
 -1      1653    6    0    1
 -2       199       200       214        24      1958      1123      2012      2087       588       604
 -1      1654    6    0    1
 -2       382        60       359       380      2148       934      1950      1392      1826      1772
 -1      1655    6    0    1
 -2        51       162       238       338      1001      2163      2165      2166      2164      1421
 -1      1656    6    0    1
 -2       109       108       117       283       480       857       859      1890      1599      2093
 -1      1657    6    0    1
 -2       233       134        64       309      2025       879      1908      1328      1644      2107
 -1      1658    6    0    1
 -2       358       383       230        62      2085      1396      1837       914      2113      1620
 -1      1659    6    0    1
 -2       139       138       270       322       513      1851      1782      1758      2143      1347
 -1      1660    6    0    1
 -2       382       306       380       359      1380      1405      1392      1950      1771      1772
 -1      1661    6    0    1
 -2       113       112       264        85       484      2082      1687      1015      1016      1686
 -1      1662    6    0    1
 -2       100       178       179       349       989       557       990      1684      1975      1650
 -1      1663    6    0    1
 -2       149       347       177       176      2157      1819      1058      1059      1668       555
 -1      1664    6    0    1
 -2       320       150       178       151      2161      1055      1977      1976       526      1057
 -1      1665    6    0    1
 -2       150       348       319       320      2155      1540      2156      2161      1541       732
 -1      1666    6    0    1
 -2       274       278        77        71      1292      2167      1750      1895      1894       816
 -1      1667    6    0    1
 -2       356       355       276        73       772      1445      1444      1939      1672      1746
 -1      1668    6    0    1
 -2        90       267        89        82      2168      1873       456       832      1874       830
 -1      1669    6    0    1
 -2       142       143       274        78       517      1916      1748       923       910      1917
 -1      1670    6    0    1
 -2       121       287       296       113      2000      1300      2169       858      1999      2125
 -1      1671    6    0    1
 -2       108       282       269        80      1598      1460      1600       994      1781      1678
 -1      1672    6    0    1
 -2       144       355       171       170      2106      1670      1033      1034      1673       548
 -1      1673    6    0    1
 -2       320       178       348       349      1977      1833      1541      1530      1975       764
 -1      1674    6    0    1
 -2        21       255        95       101      1254      1811      1642      1643      1987       839
 -1      1675    6    0    1
 -2       231       307       308       132      1324       719      1325      2094      1741      2095
 -1      1676    6    0    1
 -2       146       245       244       102      1922       644      1778       903      2114      2056
 -1      1677    6    0    1
 -2       233       232       309        64       629      1327      1328      1908      1906      2107
 -1      1678    6    0    1
 -2       361       364       215       214      1863      1142      1951      1952      1145       605
 -1      1679    6    0    1
 -2       238       339       338       162      1420       753      1421      2163      2051      2164
 -1      1680    6    0    1
 -2        43       155       226       331       956      2083      2117      2120      1585      1415
 -1      1681    6    0    1
 -2       322       323       139       352       736      2128      1758      1521      1523      1693
 -1      1682    6    0    1
 -2       300       299       152       124       711      2037      2003      2170      1942      1080
 -1      1683    6    0    1
 -2       218       302       303       127      1318       714      1319      2031      1931      1912
 -1      1684    6    0    1
 -2       242       386        48       385      1466      1996      1994      1463      1467      2132
 -1      1685    6    0    1
 -2        53        52       163       340       412       998       969      1611      1723      2052
 -1      1686    6    0    1
 -2       342         8        36        30      2046      1944       757      1428      1751      1429
 -1      1687    6    0    1
 -2       129       333       305       157      1580      1555      1581      1069      1785      1786
 -1      1688    6    0    1
 -2       171        32        73       356      2171      1809       977      1671      1447      1939
 -1      1689    6    0    1
 -2       344       343       254        96       759      1433      1432      1938      2130      2055
 -1      1690    6    0    1
 -2       255       343        96       254      1430      2130      1986       655      1433      2055
 -1      1691    6    0    1
 -2        11       115        36        12       850      1945      1604       477       487      1605
 -1      1692    6    0    1
 -2       234       235       237        66       631      1242      1241      2097      1961      1960
 -1      1693    6    0    1
 -2       257       291       117        88      1368      2004      2005      2173      2172       907
 -1      1694    6    0    1
 -2        69       281       351       280      1804      1456      1909      1805       687      1441
 -1      1695    6    0    1
 -2       354        72       170       169      1897       975      2118      2174       974       547
 -1      1696    6    0    1
 -2        28        27       215        47       625      2175       606      2099      2176      2177
 -1      1697    6    0    1
 -2       257       258       267        89       660      1275      1274      1964      1762      1873
 -1      1698    6    0    1
 -2       149       347       319       177      2157      1539      1675      1058      1819      1818
 -1      1699    6    0    1
 -2       140       139       323       352       514      2128      1968      1694      1693      1523
 -1      1700    6    0    1
 -2       159       307       336       335      1742      1560      1744      2071      1559       750
 -1      1701    6    0    1
 -2       109       283       268        81      1890      1450      2136       999      1653      1655
 -1      1702    6    0    1
 -2       252        98       346       392      1915      2111      1494      1508      2178      1509
 -1      1703    6    0    1
 -2       146       244       245       315      1778       644      1922      1780      1340      1371
 -1      1704    6    0    1
 -2       236       340       237        52      1425      1422       635      1592      1723      1962
 -1      1705    6    0    1
 -2       341        53       340       236      1612      1611       755      1424      1593      1425
 -1      1706    6    0    1
 -2        31        53       341       236      2179      1612      1427       634      1593      1424
 -1      1707    6    0    1
 -2       293       259       119       294      1395      1832      1587       704      1403      1586
 -1      1708    6    0    1
 -2       265        84        91       260      1991       833      2181      1278      2180      2182
 -1      1709    6    0    1
 -2       240        64       239        50      2058      1907       638      1709       788      1711
 -1      1710    6    0    1
 -2       243       215       357        47      1249      2183      2140      2100      2177       798
 -1      1711    6    0    1
 -2       262       261       296        93       664      1369      1357      1639      1984      1637
 -1      1712    6    0    1
 -2       143       354       170       169      2109      2118      1036      1038      2174       547
 -1      1713    6    0    1
 -2       207       184       361       215      1206      1097      2185      1135      2184      1951
 -1      1714    6    0    1
 -2        93        86       262       263       827      2186      1639      1982      1934      1272
 -1      1715    6    0    1
 -2       184       198       361       215      1095      1116      1097      2184      1953      1951
 -1      1716    6    0    1
 -2       128       219       303        57      1722      1320      1591       871      1579      1712
 -1      1717    6    0    1
 -2       207       184       215        27      1206      2184      1135      1204       569      2175
 -1      1718    6    0    1
 -2       283       117       292       291      2093      2006      1306      1299      2004       702
 -1      1719    6    0    1
 -2       315       173       145       343      2187      1049      1834      1533      2129      2188
 -1      1720    6    0    1
 -2       275        22        79       327       681      1838      1708      1351      1352      2119
 -1      1721    6    0    1
 -2       325       169       353       354      2189      2190      1525      1524      2174       770
 -1      1722    6    0    1
 -2       222        60       382       380      2045      2148      1387      1364      1826      1392
 -1      1723    6    0    1
 -2       243        28       215        47       642       606      1249      2100      2099      2177
 -1      1724    6    0    1
 -2         9       144       327       171       519      2040      1817      1032      1033      1669
 -1      1725    6    0    1
 -2       315       173       146       145      2187      1052      1780      1834      1049       521
 -1      1726    6    0    1
 -2       353       352       279        70       769      1455      1500      2153      2191      2075
 -1      1727    6    0    1
 -2       352       167       139       351      1695      1040      1693       768      1761      1760
 -1      1728    6    0    1
 -2       288       122       296       113      1940      1636      1301      2124       855      2125
 -1      1729    6    0    1
 -2       291       290        87       256       701      1692      2147      1356      1355      1690
 -1      1730    6    0    1
 -2       184       198       215        27      1095      1953      2184       569       585      2175
 -1      1731    6    0    1
 -2        69       351       281       166      1909      1456      1804       996      1759      1957
 -1      1732    6    0    1
 -2       325       169       142       353      2189      1041      2123      1525      2190      1978
 -1      1733    6    0    1
 -2       310       162       338       339      2050      2164      1565      1566      2051       753
 -1      1734    6    0    1
 -2       288       289       297       114       698      1303      1302      1903      1905      2159
 -1      1735    6    0    1
 -2       199       364       361       214      1862      1863      1113      2012      1145      1952
 -1      1736    6    0    1
 -2       197       205       363       196      1165      2081      1118       583      1166      1121
 -1      1737    6    0    1
 -2       143       144       326        79       518      2105      1755       889       888      1756
 -1      1738    6    0    1
 -2       171        32         6        73      2171      1920       978       977      1809       436
 -1      1739    6    0    1
 -2       364       207       361       215      1136      2185      1863      1142      1135      1951
 -1      1740    6    0    1
 -2       106       320         3       151      2162      2068       475       898      1976       900
 -1      1741    6    0    1
 -2       221       304       305       129      1322       716      1323      1640      1582      1581
 -1      1742    6    0    1
 -2       315       173       344       146      2187      1937      1534      1780      1052      1988
 -1      1743    6    0    1
 -2       149       347       318       319      2157      1538      1677      1675      1539       731
 -1      1744    6    0    1
 -2       197       205       368       363      1165      1182      1158      1118      2081      2088
 -1      1745    6    0    1
 -2       109       284        82       268      1889      2146      1006      2136      1449      1876
 -1      1746    6    0    1
 -2       234       310       135        65      1330      1855      1932      2043      2028       922
 -1      1747    6    0    1
 -2       220       128       304        58      1721      1590      1378      1628       874      1665
 -1      1748    6    0    1
 -2        52       237       236       235      1962       635      1592      1963      1242      1243
 -1      1749    6    0    1
 -2       300       152       299       328      2003      2037       711      1547      1814      1546
 -1      1750    6    0    1
 -2       315       173       343       344      2187      2129      1533      1534      1937       759
 -1      1751    6    0    1
 -2       171        32        10         6      2171      1921       549       978      1920       979
 -1      1752    6    0    1
 -2       245       316       246       147      1373      1372       645      1924      1839      1841
 -1      1753    6    0    1
 -2       355       171       327       144      1670      1669      1518      2106      1033      2040
 -1      1754    6    0    1
 -2       252       176       251       346      2112      1666       652      1494      1667      1491
 -1      1755    6    0    1
 -2       230        61       357       214      1622       793      1621      1234      2192      2193
 -1      1756    6    0    1
 -2       234        65        51       238      2043       805      2194      1245      2044      2165
 -1      1757    6    0    1
 -2        72        71       169       354       434      1010       974      1897      2079      2174
 -1      1758    6    0    1
 -2        28       207       215        27       596      1135       606       625      1204      2175
 -1      1759    6    0    1
 -2       363       366       206       180      1860      1146      1867      1893      1144      1134
 -1      1760    6    0    1
 -2       117       108       291       283       857      1704      2004      2093      1599      1299
 -1      1761    6    0    1
 -2       275        22        73        79       681      1807      1706      1708      1838       809
 -1      1762    6    0    1
 -2       145       343       173       172      2188      2129      1049      1050      1933       551
 -1      1763    6    0    1
 -2        30       262        86       263      1273      2186      1752       666      1272      1934
 -1      1764    6    0    1
 -2       295       296       261       121       706      1369      1385      2035      2169      2033
 -1      1765    6    0    1
 -2        88        87       256       291       454      1690      2065      2172      2147      1356
 -1      1766    6    0    1
 -2       218        57       226        43      1578      1577      1188      2115       779      2117
 -1      1767    6    0    1
 -2       295       296       121       287       706      2169      2035      1305      1300      2000
 -1      1768    6    0    1
 -2       334       130       305       157      1878      1879      1556      1784      1072      1786
 -1      1769    6    0    1
 -2       233       309       310       134      1328       721      1329      2025      1644      2027
 -1      1770    6    0    1
 -2       310       234       233        65      1330       630      1329      2028      2043      2026
 -1      1771    6    0    1
 -2       325       169       143       142      2189      1038      2110      2123      1041       517
 -1      1772    6    0    1
 -2        19       213       181        20      1205      1141      1092       565       603       564
 -1      1773    6    0    1
 -2        30       262        94        86      1273      1824      1753      1752      2186       822
 -1      1774    6    0    1
 -2        40        29       328        16      1409      1408       742      1703      1647      1815
 -1      1775    6    0    1
 -2       225       332       226        44      1417      1414       619      1738      1767      1797
 -1      1776    6    0    1
 -2       139       138       322       166       513      2143      1758      1039      1037      1757
 -1      1777    6    0    1
 -2       217        55       301       126      1725      1727      1361      2039       919      1972
 -1      1778    6    0    1
 -2       152        41         7        29       953       400       952      1813      1697      1616
 -1      1779    6    0    1
 -2        27        28       390        47       625      1497      1496      2176      2099      2103
 -1      1780    6    0    1
 -2       132       308       336       307      2095      1561      1743      1741       719      1560
 -1      1781    6    0    1
 -2        74       138         1        23       887       936       437      2015      2138      2195
 -1      1782    6    0    1
 -2       325       169       354       143      2189      2174      1524      2110      1038      2109
 -1      1783    6    0    1
 -2        53         1        67        23       777       428       789      2196      2195      2197
 -1      1784    6    0    1
 -2         1        53         5        31       777       413       399      2198      2179      2199
 -1      1785    6    0    1
 -2         5        68         1        31       430       807       399      2199      1928      2198
 -1      1786    6    0    1
 -2         1        68        74        23       807       811       437      2195      2016      2015
 -1      1787    6    0    1
 -2        67         1       137        23       428       944       883      2197      2195      2200
 -1      1788    6    0    1
 -2       116         9         2       290       488       890       892      1658      1794      1892
 -1      1789    6    0    1
 -2        26       124         3       299      2201       867      1877      1314      1942      1943
 -1      1790    6    0    1
 -2         3       299        15       320      1943      1941       868      2068      1313      2007
 -1      1791    6    0    1
 -2       171        32       356        10      2171      1447      1671       549      1921      1800
 -1      1792    6    0    1
 -2        90        89       267       258       456      1873      2168      1609      1762      1275
 -1      1793    6    0    1
 -2       193       365       202       371      2202      1126      1163      1169      2203      1170
 -1      1794    6    0    1
 -2       193       365       192       202      2202      2204       579      1163      1126      1164
 -1      1795    6    0    1
 -2        26       124        54         3      2201       870      1617      1877       867       414
 -1      1796    6    0    1
 -2        26       124       300        54      2201      2170      1315      1617       870      2062
 -1      1797    6    0    1
 -2        26       124       299       300      2201      1942      1314      1315      2170       711
 -1      1798    6    0    1
 -2       193       365       362       192      2202      2205      1111       579      2204      1110
 -1      1799    6    0    1
 -2        95        96       343       173       463      2130      1810       986       987      2129
 -1      1800    6    0    1
 -2        47       223       198        46      2206      1196      2207       406      2060      2160
 -1      1801    6    0    1
 -2       114       115         8       289       486       982       981      1905      2042      2017
 -1      1802    6    0    1
 -2       116       107         9       290       853       849       488      1658      1660      1794
 -1      1803    6    0    1
 -2        47       223        27       198      2206       616      2176      2207      1196       585
 -1      1804    6    0    1
 -2       172       342        11       314      1651      1606      1046      2208      1531      1869
 -1      1805    6    0    1
 -2        47       223       388        27      2206      1471      2209      2176       616      1472
 -1      1806    6    0    1
 -2       145       172        11       314      1050      1046       520      1868      2208      1869
 -1      1807    6    0    1
 -2       342        35        11       314      1528      1619      1606      1531       726      1869
 -1      1808    6    0    1
 -2       138       165        13       321      1035      1031       512      2137      2151      2210
 -1      1809    6    0    1
 -2       395       373        60        46      2211      2011      2212      2213      2009       791
 -1      1810    6    0    1
 -2       341       164       394       137      1614      2214      2215      2216      1064      2217
 -1      1811    6    0    1
 -2       164        13       394       137      1063      2218      2214      1064       511      2217
 -1      1812    6    0    1
 -2        95       343        96       255      1810      2130       463      1811      1430      1986
 -1      1813    6    0    1
 -2        96        97       344       174       464      2219      1938       988      1005      1936
 -1      1814    6    0    1
 -2       299        40        15        39      1544      1970      1941       710       775      2220
 -1      1815    6    0    1
 -2        40       349        15        39       765      1997      1970       775      1529      2220
 -1      1816    6    0    1
 -2       349       320        15        39      1530      2007      1997      1529       733      2220
 -1      1817    6    0    1
 -2       262        94        21        30      1824      1603       665      1273      1753       657
 -1      1818    6    0    1
 -2        47       223        46       388      2206      2060       406      2209      1471      1715
 -1      1819    6    0    1
 -2        96       344        97       254      1938      2219       464      2055      1432      2221
 -1      1820    6    0    1
 -2       395       373       199        60      2211      1201      2222      2212      2011      2047
 -1      1821    6    0    1
 -2       297       298        21       123       708      1359      1370      2061      2223      1601
 -1      1822    6    0    1
 -2       255        30        21        95       656       657      1254      1811      1836      1642
 -1      1823    6    0    1
 -2       250       106        99       249      2224       842      1828      1260      2019      2020
 -1      1824    6    0    1
 -2        22        73        32       275      1807      1809       674       681      1706      1288
 -1      1825    6    0    1
 -2        31       236        23        53       634      1244       633      2179      1593      2196
 -1      1826    6    0    1
 -2        37        23       313       137      1336      1335       725      2225      2200      2226
 -1      1827    6    0    1
 -2       235       312        23        67      1333      1334       632      1848      1847      2197
 -1      1828    6    0    1
 -2       313        23       312       137      1335      1334       724      2226      2200      2227
 -1      1829    6    0    1
 -2       236       235        23        67      1243       632      1244      1594      1848      2197
 -1      1830    6    0    1
 -2       281        31        23        68       688       633      1282      1930      1928      2016
 -1      1831    6    0    1
 -2       395       373       198       199      2211      1197      2228      2222      1201       586
 -1      1832    6    0    1
 -2       250       106       100        99      2224       838      1685      1828       842       467
 -1      1833    6    0    1
 -2        24       214       199        61       604      2012      2087      2078      2192      2229
 -1      1834    6    0    1
 -2        61       230        24       214      1622       626      2078      2192      1234       604
 -1      1835    6    0    1
 -2       384        24        25        61      1398       607      1399      1728      2078      2230
 -1      1836    6    0    1
 -2       199        25        24        61       587       607      2087      2229      2230      2078
 -1      1837    6    0    1
 -2       222        60        25       199      2045      2041       615      1195      2047       587
 -1      1838    6    0    1
 -2        60       384        25        61      1825      1399      2041       421      1728      2230
 -1      1839    6    0    1
 -2        29       250        26       100       650      1261       624      1683      1685      1898
 -1      1840    6    0    1
 -2       229        29        26        54       623       624      1184      1696      1618      1617
 -1      1841    6    0    1
 -2       395       373        46       198      2211      2009      2213      2228      1197      2160
 -1      1842    6    0    1
 -2       216       229        26        54      1185      1184       608      2063      1696      1617
 -1      1843    6    0    1
 -2       300       216        26        54      1316       608      1315      2062      2063      1617
 -1      1844    6    0    1
 -2       320       299        26         3      1313      1314      1377      2068      1943      1877
 -1      1845    6    0    1
 -2        76       324       140       272      2231      1967       937      2232      1393      1966
 -1      1846    6    0    1
 -2        27       390       388        47      1496      1504      1472      2176      2103      2209
 -1      1847    6    0    1
 -2       250       106        26       100      2224      2233      1261      1685       838      1898
 -1      1848    6    0    1
 -2       250       106       249        26      2224      2019      1260      1261      2233       649
 -1      1849    6    0    1
 -2       239        51       338       161      2234      2166      1461      1629       997      1631
 -1      1850    6    0    1
 -2        76       324       141       140      2231      2080       945       937      1967       515
 -1      1851    6    0    1
 -2        76       324       273       141      2231      1383      2235       945      2080      2089
 -1      1852    6    0    1
 -2       276       275        32        73      1290      1288       682      1746      1706      1809
 -1      1853    6    0    1
 -2        76       324       272       273      2231      1393      2232      2235      1383       678
 -1      1854    6    0    1
 -2       239       338        51       238      1461      2166      2234       637      1421      2165
 -1      1855    6    0    1
 -2       387        48       243       386      2236      1995      1469      1470      1996      1465
 -1      1856    6    0    1
 -2        37        38       321        14       774      1513       734      2238      2237      2239
 -1      1857    6    0    1
 -2       387        48        47       243      2236       407      2098      1469      1995      2100
 -1      1858    6    0    1
 -2       350       321        38        14      1515      1513       766      2240      2239      2237
 -1      1859    6    0    1
 -2       299       320        39        15      1313       733       710      1941      2007      2220
 -1      1860    6    0    1
 -2        55       228        41        42      1737      1882       800       801      1736       401
 -1      1861    6    0    1
 -2       153        42        41       228      1012       401       954      1883      1736      1882
 -1      1862    6    0    1
 -2       138        23       137         1      2138      2200       885       936      2195       944
 -1      1863    6    0    1
 -2        75       323       140       139      2241      1968       924       909      2128       514
 -1      1864    6    0    1
 -2       227       154        42        43      1575      1011      1799      2116       955       402
 -1      1865    6    0    1
 -2        56       227        42        43      2122      1799       796       790      2116       402
 -1      1866    6    0    1
 -2        42        55       217        56       801      1725      1735       796       416      2036
 -1      1867    6    0    1
 -2        89       268        88        81      1875      1866       455       828      1655       825
 -1      1868    6    0    1
 -2        43       155       331       154       956      1585      2120       955       531      1574
 -1      1869    6    0    1
 -2        43        56       218        57       790      2029      2115       779       417      1578
 -1      1870    6    0    1
 -2        57       226        43        44      1577      2117       779       780      1797       403
 -1      1871    6    0    1
 -2       155        44        43       226       957       403       956      2083      1797      2117
 -1      1872    6    0    1
 -2        45        58        44       225       782       781       404      1661      1627      1738
 -1      1873    6    0    1
 -2       156        45        44       225       959       404       958      1769      1661      1738
 -1      1874    6    0    1
 -2        44       156       332       155       958      1768      1767       957       532      1583
 -1      1875    6    0    1
 -2        89        88       268       257       455      1866      1875      1964      2173      1270
 -1      1876    6    0    1
 -2       221       225        45       224      1192      1661      1652      1203       618      2022
 -1      1877    6    0    1
 -2       157        46        45       389       961       405       960      1714      1716      1872
 -1      1878    6    0    1
 -2        45       157       333       156       960      1785      1854       959       533      1853
 -1      1879    6    0    1
 -2       224       389        45        46      1473      1872      2022      2023      1716       405
 -1      1880    6    0    1
 -2       229        55        54       216      2242       415      1696      1185      1726      2063
 -1      1881    6    0    1
 -2       157        46       388       158       961      1715      1713       534       962      1948
 -1      1882    6    0    1
 -2       229        55        41        54      2242       800      1698      1696       415       778
 -1      1883    6    0    1
 -2       229        55       228        41      2242      1737       622      1698       800      1882
 -1      1884    6    0    1
 -2       158        47        46       388      1000       406       962      1948      2209      1715
 -1      1885    6    0    1
 -2       229        55       216       228      2242      1726      1185       622      1737      1186
 -1      1886    6    0    1
 -2       390        47       387       388      2103      2098      1505      1504      2209      1495
 -1      1887    6    0    1
 -2        48       357        47       243       799       798       407      1995      2140      2100
 -1      1888    6    0    1
 -2       387        48       158        47      2236       963      1946      2098       407      1000
 -1      1889    6    0    1
 -2        48       159        49       385       964       965       408      2132      2070      2243
 -1      1890    6    0    1
 -2        62       357        48       379       792       799       806      2076      2141      2059
 -1      1891    6    0    1
 -2       158       159        48       386       535       964       963      2244      2069      1996
 -1      1892    6    0    1
 -2       241       385        48        49      1464      2132      2131      1662      2243       408
 -1      1893    6    0    1
 -2        63        62        48       231       423       806       785      1733      2077      2245
 -1      1894    6    0    1
 -2       385       386        48       159      1467      1996      2132      2070      2069       964
 -1      1895    6    0    1
 -2        49        63        48       241       786       785       408      1662      1734      2131
 -1      1896    6    0    1
 -2       387        48       386       158      2236      1996      1470      1946       963      2244
 -1      1897    6    0    1
 -2        64        63        49       232       424       786       787      1906      1732      1664
 -1      1898    6    0    1
 -2        50        64        49       240       788       787       409      1709      2058      1663
 -1      1899    6    0    1
 -2       159       160        49       336       536       966       965      1744      1927      2246
 -1      1900    6    0    1
 -2       232       240        49        64      1251      1663      1664      1906      2058       787
 -1      1901    6    0    1
 -2       160        50        49       240       967       409       966      2024      1709      1663
 -1      1902    6    0    1
 -2       160       161        50       337       537       968       967      1926      1630      1710
 -1      1903    6    0    1
 -2       161        50       239        51       968      1711      1629       997       410      2234
 -1      1904    6    0    1
 -2        50        51        65       239       410       805       804      1711      2234      2247
 -1      1905    6    0    1
 -2        50        64       239        65       788      1907      1711       804       425      2247
 -1      1906    6    0    1
 -2       238        65        51       239      2044       805      2165       637      2247      2234
 -1      1907    6    0    1
 -2       338       161        51       162      1631       997      2166      2164       538      1001
 -1      1908    6    0    1
 -2        52        66        51       237       795       803       411      1962      1960      2248
 -1      1909    6    0    1
 -2       188       205       196       189      2249      1166      1105       574      2142      1104
 -1      1910    6    0    1
 -2        51       238       162       237      2165      2163      1001      2248       636      2250
 -1      1911    6    0    1
 -2       162        52        51       237      1002       411      1001      2250      1962      2248
 -1      1912    6    0    1
 -2        66        65        51       234       426       805       803      2097      2043      2194
 -1      1913    6    0    1
 -2       234       238        51       237      1245      2165      2194      1241       636      2248
 -1      1914    6    0    1
 -2       235        67        52        66      1848       794      1963      1961       427       795
 -1      1915    6    0    1
 -2       339       237        52       162      1423      1962      2048      2051      2250      1002
 -1      1916    6    0    1
 -2        52       163       339       162       998      2053      2048      1002       539      2051
 -1      1917    6    0    1
 -2        67       236        53        23      1594      1593       789      2197      1244      2196
 -1      1918    6    0    1
 -2       164       340        53       163      1613      1611       970       540      2052       969
 -1      1919    6    0    1
 -2       125       216        54        55      1842      2063       869       917      1726       415
 -1      1920    6    0    1
 -2       300       125        54       124      1846       869      2062      2170       498       870
 -1      1921    6    0    1
 -2       301       126        55       125      1972       919      1727      1843       499       917
 -1      1922    6    0    1
 -2        56       126        55       217       918       919       416      2036      2039      1725
 -1      1923    6    0    1
 -2       302       127        56       126      1931       911      2030      1973       500       918
 -1      1924    6    0    1
 -2        57       127        56       218       872       911       417      1578      2031      2029
 -1      1925    6    0    1
 -2       303       128        57       127      1591       871      1712      1912       501       872
 -1      1926    6    0    1
 -2        58       128       304       129       874      1590      1665       873       502      1582
 -1      1927    6    0    1
 -2        59       129       305       130       876      1581      1959       875       503      1879
 -1      1928    6    0    1
 -2        59       130       382        60       875      1949      1965       420       912      2148
 -1      1929    6    0    1
 -2        61       359        60       384       931       934       421      1728      1730      1825
 -1      1930    6    0    1
 -2       359       130        60       382       935       912       934      1950      1949      2148
 -1      1931    6    0    1
 -2       188       196       205       370      1105      1166      2249      2251      1168      1167
 -1      1932    6    0    1
 -2       260       264        84        92      1277      2252      2180      2253      2108       831
 -1      1933    6    0    1
 -2       260        84       264       265      2180      2252      1277      1278      1991       668
 -1      1934    6    0    1
 -2        63       132        62       231       878       915       423      1733      2094      2077
 -1      1935    6    0    1
 -2        62       231       379        48      2077      1236      2076       806      2245      2059
 -1      1936    6    0    1
 -2       301       153       330       126      1845      2254      1573      1972      1087      1971
 -1      1937    6    0    1
 -2       241       231        63        48      1237      1733      1734      2131      2245       785
 -1      1938    6    0    1
 -2       133       232        63        64      2102      1732       877       880      1906       424
 -1      1939    6    0    1
 -2       133       132        63       308       506       878       877      1900      2095      2096
 -1      1940    6    0    1
 -2       232       308        63       231      1326      2096      1732       628      1325      1733
 -1      1941    6    0    1
 -2       134       133        64       309       507       880       879      1644      1899      2107
 -1      1942    6    0    1
 -2        65       134        64       233       916       879       425      2026      2025      1908
 -1      1943    6    0    1
 -2        65       134       310       135       916      2027      2028       922       508      1855
 -1      1944    6    0    1
 -2       238       233        65       239      1246      2026      2044       637      1240      2247
 -1      1945    6    0    1
 -2       135       234        65        66      1932      2043       922       882      2097       426
 -1      1946    6    0    1
 -2       311       136        66       135      1993       881      1992      1856       509       882
 -1      1947    6    0    1
 -2       237       234        66        51      1241      2097      1960      2248      2194       803
 -1      1948    6    0    1
 -2       136       235        66        67      1850      1961       881       884      1848       427
 -1      1949    6    0    1
 -2        67       136       312       137       884      1849      1847       883       510      2227
 -1      1950    6    0    1
 -2        75        74        69       270       438       813       814      1858      1852      1803
 -1      1951    6    0    1
 -2       150       249       320       319      2255      1344      2161      2156      1343       732
 -1      1952    6    0    1
 -2        69        70        75       279       432       817       814      2091      2075      2092
 -1      1953    6    0    1
 -2        75       323       272       140      2241      1384      2256       924      1968      1966
 -1      1954    6    0    1
 -2       150       249       106       320      2255      2019       899      2161      1344      2162
 -1      1955    6    0    1
 -2        75       323       271       272      2241      1374      1859      2256      1384       677
 -1      1956    6    0    1
 -2       301       330       153       329      1573      2254      1845      1572       744      1884
 -1      1957    6    0    1
 -2       150       249       105       106      2255      2018       904       899      2019       474
 -1      1958    6    0    1
 -2        71        77        70       278       816       819       433      1894      2167      2073
 -1      1959    6    0    1
 -2        75       323       139       271      2241      2128       909      1859      1374      1783
 -1      1960    6    0    1
 -2        70       353       352       168      2153       769      2191      1020      1980      2257
 -1      1961    6    0    1
 -2        70        76        75       272       818       439       817      2074      2232      2256
 -1      1962    6    0    1
 -2       167       168        70       352       545      1020      1019      1695      2257      2191
 -1      1963    6    0    1
 -2        78        77        71       274       441       816       815      1917      1750      1895
 -1      1964    6    0    1
 -2        71       168       169       353      1017       546      1010      2154      1980      2190
 -1      1965    6    0    1
 -2       169       354        71       353      2174      2079      1010      2190       770      2154
 -1      1966    6    0    1
 -2        79        78        72       275       442       812       810      1708      1918      1707
 -1      1967    6    0    1
 -2        78       277        72       275      2049      1595       812      1918      1287      1707
 -1      1968    6    0    1
 -2       277       276        72       275       683      1597      1595      1287      1290      1707
 -1      1969    6    0    1
 -2        75       139        74       270       909       886       438      1858      1782      1852
 -1      1970    6    0    1
 -2        76       140        75       272       937       924       439      2232      1966      2256
 -1      1971    6    0    1
 -2       150       249       319       105      2255      1343      2156       904      2018      1682
 -1      1972    6    0    1
 -2       165        31       393       350      2258      2259      2260      2144      1439      2261
 -1      1973    6    0    1
 -2        26       106         3       100      2233       475      1877      1898       838       837
 -1      1974    6    0    1
 -2       165        31         5       393      2258      2199      1014      2260      2259      2262
 -1      1975    6    0    1
 -2        77       141        76       273       941       945       440      1749      2089      2235
 -1      1976    6    0    1
 -2       278       274        77       273      1292      1750      2167      1291       679      1749
 -1      1977    6    0    1
 -2       142       274        77        78      1748      1750       925       923      1917       441
 -1      1978    6    0    1
 -2       143       275        78        79      1754      1918       910       889      1708       442
 -1      1979    6    0    1
 -2       275       274        78       277       680      1917      1918      1287      1286      2049
 -1      1980    6    0    1
 -2       395        61       214       357      2263      2192      2264      2265       793      2193
 -1      1981    6    0    1
 -2       108       282        80       107      1598      1781       994       479      1659       992
 -1      1982    6    0    1
 -2        81        88        80       269       825       824       446      1654      1865      1678
 -1      1983    6    0    1
 -2       269       108        80        81      1600       994      1678      1654       993       446
 -1      1984    6    0    1
 -2       109        81       268        82       999      1655      2136      1006       447      1876
 -1      1985    6    0    1
 -2        82        89        81       268       830       828       447      1876      1875      1655
 -1      1986    6    0    1
 -2       395        61       199       214      2263      2229      2222      2264      2192      2012
 -1      1987    6    0    1
 -2       395        61        60       199      2263       421      2212      2222      2229      2047
 -1      1988    6    0    1
 -2       395        61       357        60      2263       793      2265      2212       421       802
 -1      1989    6    0    1
 -2       214       199       198       361      2012       586      1954      1952      1113      1116
 -1      1990    6    0    1
 -2        26       106       320         3      2233      2162      1377      1877       475      2068
 -1      1991    6    0    1
 -2        26       106       249       320      2233      2019       649      1377      2162      1344
 -1      1992    6    0    1
 -2       109       110        82       284       481      1022      1006      1889      1635      2146
 -1      1993    6    0    1
 -2       284        82       267       110      2146      1874      1458      1635      1022      2266
 -1      1994    6    0    1
 -2       111        84        83       265      1021       449      1024      1990      1991      2267
 -1      1995    6    0    1
 -2       285       110        83       111      2126      1023      2135      1830       482      1024
 -1      1996    6    0    1
 -2       111        83       266       265      1024      2134      2133      1990      2267       669
 -1      1997    6    0    1
 -2        84        91        83       265       833       835       449      1991      2181      2267
 -1      1998    6    0    1
 -2       203       377       371       396      2268      2269      1181      2271      2270      2272
 -1      1999    6    0    1
 -2        84        91       260        92       833      2182      2180       831       458      2253
 -1      2000    6    0    1
 -2        85        92        84       264       829       831       450      1686      2108      2252
 -1      2001    6    0    1
 -2       265       112        84       264      2086      1018      1991       668      2082      2252
 -1      2002    6    0    1
 -2       298        11        35        21      2273      1619       709      1359      1674      1337
 -1      2003    6    0    1
 -2       112        85        84       264      1016       450      1018      2082      1686      2252
 -1      2004    6    0    1
 -2        93       263        85        86      1982      1688       826       827      1934       451
 -1      2005    6    0    1
 -2       263       113        85        86      1689      1015      1688      1934      1004       451
 -1      2006    6    0    1
 -2       261        93        85        92      1984       826      1983      2032       459       829
 -1      2007    6    0    1
 -2       262        94        86        93      1824       822      2186      1639       460       827
 -1      2008    6    0    1
 -2        86       114       288       113       995      1903      1902      1004       485      2124
 -1      2009    6    0    1
 -2       288       263        86       113      1452      1934      1902      2124      1689      1004
 -1      2010    6    0    1
 -2       117       116        87       291       489       905       906      2004      1705      2147
 -1      2011    6    0    1
 -2        88       117        87       291       907       906       454      2172      2004      2147
 -1      2012    6    0    1
 -2       269       268        88       256       672      1866      1865      1268      1269      2065
 -1      2013    6    0    1
 -2        88       117       257        89       907      2005      2173       455       938      1964
 -1      2014    6    0    1
 -2       257       291        88       256      1368      2172      2173       659      1356      2065
 -1      2015    6    0    1
 -2       257       258        89       292       660      1762      1964      1375      1376      1764
 -1      2016    6    0    1
 -2       292       118        89       117      1765       939      1764      2006       490       938
 -1      2017    6    0    1
 -2        90       118        89       258       948       939       456      1609      1763      1762
 -1      2018    6    0    1
 -2       298        11        36        35      2273      1604      1296       709      1619       690
 -1      2019    6    0    1
 -2       293       119        90       118      1587       947      1608      1632       491       948
 -1      2020    6    0    1
 -2       259        90       266       258      1610      2274      1280       661      1609      1279
 -1      2021    6    0    1
 -2       258       293        90       118      1386      1608      1609      1763      1632       948
 -1      2022    6    0    1
 -2        91       119       294       120       950      1586      2152       949       492      1788
 -1      2023    6    0    1
 -2        46       395        47        60      2213      2275       406       791      2212       797
 -1      2024    6    0    1
 -2       294       259        91       260      1403      1831      2152      1404       662      2182
 -1      2025    6    0    1
 -2       165        31        68         5      2258      1928       972      1014      2199       430
 -1      2026    6    0    1
 -2        92       295       121       120      2034      2035       930       940      1822       493
 -1      2027    6    0    1
 -2       261       295        92       260      1385      2034      2032       663      1389      2253
 -1      2028    6    0    1
 -2       298        11        21       123      2273      1674      1359      2223       496      1601
 -1      2029    6    0    1
 -2        93       121        92       261       926       930       459      1984      2033      2032
 -1      2030    6    0    1
 -2       264       261        92       260      1276      2032      2108      1277       663      2253
 -1      2031    6    0    1
 -2       122       262        93        94      1638      1639       908       894      1824       460
 -1      2032    6    0    1
 -2       261       296        93       121      1369      1637      1984      2033      2169       926
 -1      2033    6    0    1
 -2       296       122        93       121      1636       908      1637      2169       494       926
 -1      2034    6    0    1
 -2       297       123        94       122      2061       893      1823      1792       495       894
 -1      2035    6    0    1
 -2        47       395       357        60      2275      2265       798       797      2212       802
 -1      2036    6    0    1
 -2        96       101        95       255       840       839       463      1986      1987      1811
 -1      2037    6    0    1
 -2       357       395        47       215      2265      2275       798      2183      2276      2177
 -1      2038    6    0    1
 -2        96       102       254        97       841      2057      2055       464       844      2221
 -1      2039    6    0    1
 -2        96       101       244       102       840      1777      1985       841       470      2056
 -1      2040    6    0    1
 -2        97       174       175       344      1005       553      1007      2219      1936      2277
 -1      2041    6    0    1
 -2       209       187       210       396      1228      1227       599      2279      2278      2280
 -1      2042    6    0    1
 -2        23        13        37       321      2281      2282      1336      1345      2210       734
 -1      2043    6    0    1
 -2       103       102        97       245       471       844       845      2283      2114      2284
 -1      2044    6    0    1
 -2        23        13       137        37      2281       511      2200      1336      2282      2225
 -1      2045    6    0    1
 -2        99       105        98       251       843       846       466      1827      2072      2285
 -1      2046    6    0    1
 -2        98       346       392       176      2111      1509      2178      1026      1667      2286
 -1      2047    6    0    1
 -2       105       104        98       248       473       847       846      1681      1910      1914
 -1      2048    6    0    1
 -2        98       360       175       391      1030      1028      1029      2288      2287      2289
 -1      2049    6    0    1
 -2       252       176        98       251      2112      1026      1915       652      1666      2285
 -1      2050    6    0    1
 -2       392       252        98       391      1508      1915      2178      1512      1510      2288
 -1      2051    6    0    1
 -2        23        13       138       137      2281       512      2138      2200       511       885
 -1      2052    6    0    1
 -2       176        99        98       251      1025       466      1026      1666      1827      2285
 -1      2053    6    0    1
 -2       178       100        99       250       989       467      1009      1835      1685      1828
 -1      2054    6    0    1
 -2       377       187       209       396      1232      1228      1218      2270      2278      2279
 -1      2055    6    0    1
 -2       165        31       350        68      2258      1439      2144       972      1928      1929
 -1      2056    6    0    1
 -2       102       146       101       244       903       902       470      2056      1778      1777
 -1      2057    6    0    1
 -2       298       115        36        11      2290      1945      1296      2273       850      1604
 -1      2058    6    0    1
 -2       298       115       289        36      2290      2042      1304      1296      1945       699
 -1      2059    6    0    1
 -2       102       103       147       245       471       929       927      2114      2283      1924
 -1      2060    6    0    1
 -2       245       254       102        97      1257      2057      2114      2284      2221       844
 -1      2061    6    0    1
 -2       148       147       103       317       523       929       943      1745      1840      2066
 -1      2062    6    0    1
 -2       246       147       103       245      1841       929      2067       645      1924      2283
 -1      2063    6    0    1
 -2       104       148       103       247       946       943       472      1702      1701      2291
 -1      2064    6    0    1
 -2       317       246       103       247      1390      2067      2066      1394       646      2291
 -1      2065    6    0    1
 -2        23        13       321       138      2281      2210      1345      2138       512      2137
 -1      2066    6    0    1
 -2       149       248       104       105      1676      1910       942       928      1681       473
 -1      2067    6    0    1
 -2       149       148       104       318       524       946       942      1677      1699      1700
 -1      2068    6    0    1
 -2       251       248       105        98      1258      1681      2072      2285      1914       846
 -1      2069    6    0    1
 -2       150       149       105       319       525       928       904      2156      1675      1682
 -1      2070    6    0    1
 -2       298       115       123       289      2290       851      2223      1304      2042      2158
 -1      2071    6    0    1
 -2       330       153        42       154      2254      1012      1798      1576       530      1011
 -1      2072    6    0    1
 -2       330        42       153       228      1798      1012      2254      1477      1736      1883
 -1      2073    6    0    1
 -2       282       116       107       108      1657       853      1659      1598       852       479
 -1      2074    6    0    1
 -2       291       116       108       117      1705       852      1704      2004       489       857
 -1      2075    6    0    1
 -2       118       110       109       284       863       481       861      1633      1635      1889
 -1      2076    6    0    1
 -2       284       292       109       118      1307      1891      1889      1633      1765       861
 -1      2077    6    0    1
 -2       292       117       109       118      2006       859      1891      1765       490       861
 -1      2078    6    0    1
 -2       110       284       293       285      1635      1310      1634      2126       694      1311
 -1      2079    6    0    1
 -2       293       118       110       119      1632       863      1634      1587       491       865
 -1      2080    6    0    1
 -2        31       164       393       341      2292      1886      2259      1427      1614      1887
 -1      2081    6    0    1
 -2       285       119       110       111      1588       865      2126      1830       864       482
 -1      2082    6    0    1
 -2       120       294       111       119      1788      1790       866       492      1586       864
 -1      2083    6    0    1
 -2       111       286       265       266      1789      1493      1990      2133      1501       669
 -1      2084    6    0    1
 -2       294       286       111       285      1309      1789      1790      1312       695      1830
 -1      2085    6    0    1
 -2       266       285       111       286      1503      1830      2133      1501       695      1789
 -1      2086    6    0    1
 -2       121       295       112       120      2035      1821       860       493      1822       862
 -1      2087    6    0    1
 -2       122       296       113       121      1636      2125       855       494      2169       858
 -1      2088    6    0    1
 -2       122       114       113       288       854       485       855      1940      1903      2124
 -1      2089    6    0    1
 -2       123       115       114       289       851       486       856      2158      2042      1905
 -1      2090    6    0    1
 -2       297       122       114       123      1792       854      2159      2061       495       856
 -1      2091    6    0    1
 -2       292       257       117        89      1375      2005      2006      1764      1964       938
 -1      2092    6    0    1
 -2       286       294       120       295      1309      1788      1787      1308       705      1822
 -1      2093    6    0    1
 -2       289       297       123       298      1303      2061      2158      1304       708      2223
 -1      2094    6    0    1
 -2       152       300       124       125      2003      2170      1080      1083      1846       498
 -1      2095    6    0    1
 -2       125       153       301       126      1084      1845      1843       499      1087      1972
 -1      2096    6    0    1
 -2        83       259        91        90      2293      1831       835       834      1610       457
 -1      2097    6    0    1
 -2        83       259       265        91      2293      1281      2267       835      1831      2181
 -1      2098    6    0    1
 -2       127       154       126       302      1066      1088       500      1931      1791      1973
 -1      2099    6    0    1
 -2       330       154       126       153      1576      1088      1971      2254       530      1087
 -1      2100    6    0    1
 -2       154       331       127       155      1574      1911      1066       531      1585      1065
 -1      2101    6    0    1
 -2       155       303       127       128      1584      1912      1065      1068      1591       501
 -1      2102    6    0    1
 -2       155       332       128       156      1583      1589      1068       532      1768      1067
 -1      2103    6    0    1
 -2       156       304       128       129      1881      1590      1067      1070      1582       502
 -1      2104    6    0    1
 -2       156       333       129       157      1853      1580      1070       533      1785      1069
 -1      2105    6    0    1
 -2       130       157       129       305      1072      1069       503      1879      1786      1581
 -1      2106    6    0    1
 -2       158       306       130       131      2054      1880      1071      1074      1774       504
 -1      2107    6    0    1
 -2       334       158       130       157      1947      1071      1878      1784       534      1072
 -1      2108    6    0    1
 -2       359       131       130       306       933       504       935      1771      1774      1880
 -1      2109    6    0    1
 -2       131       335       307       159      1776      1559      1775      1073      2071      1742
 -1      2110    6    0    1
 -2       358       131       307       132       921      1775      2084       920       505      1741
 -1      2111    6    0    1
 -2       131       158       335       159      1074      2013      1776      1073       535      2071
 -1      2112    6    0    1
 -2       132       159       131       307      1076      1073       505      1741      1742      1775
 -1      2113    6    0    1
 -2       132       336       308       160      1743      1561      2095      1075      1927      1925
 -1      2114    6    0    1
 -2       159       336       132       160      1744      1743      1076       536      1927      1075
 -1      2115    6    0    1
 -2       133       160       132       308      1078      1075       506      1900      1925      2095
 -1      2116    6    0    1
 -2       160       337       133       161      1926      1901      1078       537      1630      1077
 -1      2117    6    0    1
 -2       161       309       133       134      1646      1899      1077      1081      1644       507
 -1      2118    6    0    1
 -2       135       162       134       310      1086      1089       508      1855      2050      2027
 -1      2119    6    0    1
 -2       162       161       134       338       538      1081      1089      2164      1631      1645
 -1      2120    6    0    1
 -2       338       310       134       162      1565      2027      1645      2164      2050      1089
 -1      2121    6    0    1
 -2       163       162       135       339       539      1086      1085      2053      2051      1857
 -1      2122    6    0    1
 -2       339       311       135       163      1567      1856      1857      2053      2002      1085
 -1      2123    6    0    1
 -2       136       163       135       311      1082      1085       509      1993      2002      1856
 -1      2124    6    0    1
 -2       137       163       136       312      1079      1082       510      2227      2001      1849
 -1      2125    6    0    1
 -2       164       163       137       340       540      1079      1064      1613      2052      2294
 -1      2126    6    0    1
 -2        83       259       266       265      2293      1280      2134      2267      1281       669
 -1      2127    6    0    1
 -2        83       259        90       266      2293      1610       834      2134      1280      2274
 -1      2128    6    0    1
 -2       324       168       141       352      1981      1043      2080      1527      2257      2295
 -1      2129    6    0    1
 -2       168       167       141       352       545      1045      1043      2257      1695      2295
 -1      2130    6    0    1
 -2       267        83        82        90      2296       448      1874      2168       834       832
 -1      2131    6    0    1
 -2       168       353       142       169      1980      1978      1044       546      2190      1041
 -1      2132    6    0    1
 -2       172       145       343       314      1050      2188      1933      2208      1868      1532
 -1      2133    6    0    1
 -2       315       343       145       314      1533      2188      1834       727      1532      1868
 -1      2134    6    0    1
 -2       147       148       175       317       523      1060      1053      1840      1745      2297
 -1      2135    6    0    1
 -2       175       174       147       344       553      1054      1053      2277      1936      1989
 -1      2136    6    0    1
 -2       147       344       345       175      1989       760      1935      1053      2277      2298
 -1      2137    6    0    1
 -2       345       317       147       175      1542      1840      1935      2298      2297      1053
 -1      2138    6    0    1
 -2       267        83       110        82      2296      1023      2266      1874       448      1022
 -1      2139    6    0    1
 -2       149       176       148       318      1059      1061       524      1677      1955      1699
 -1      2140    6    0    1
 -2        31       164         5       393      2292      1013      2199      2259      1886      2262
 -1      2141    6    0    1
 -2       247       317       148       103      1394      1745      1701      2291      2066       943
 -1      2142    6    0    1
 -2        31       164        53         5      2292       970      2179      2199      1013       413
 -1      2143    6    0    1
 -2       150       177       149       319      1056      1058       525      2156      1818      1675
 -1      2144    6    0    1
 -2       267        83        90       266      2296       834      2168       670      2134      2274
 -1      2145    6    0    1
 -2        31       164       341        53      2292      1614      1427      2179       970      1612
 -1      2146    6    0    1
 -2       228       329       153       330      1478      1884      1883      1477       744      2254
 -1      2147    6    0    1
 -2       388       334       157       158      1489      1784      1713      1948      1947       534
 -1      2148    6    0    1
 -2       388       387       158        47      1495      1946      1948      2209      2098      1000
 -1      2149    6    0    1
 -2       335       158       387       386      2013      1946      1487      1481      2244      1470
 -1      2150    6    0    1
 -2       335       386       159       158      1481      2069      2071      2013      2244       535
 -1      2151    6    0    1
 -2       159       385       336        49      2070      1498      1744       965      2243      2246
 -1      2152    6    0    1
 -2       337       240       160       336      1418      2024      1926       751      1419      1927
 -1      2153    6    0    1
 -2       238       339       162       237      1420      2051      2163       636      1423      2250
 -1      2154    6    0    1
 -2       163       340       312       137      2052      1569      2001      1079      2294      2227
 -1      2155    6    0    1
 -2       341       340       164       137       755      1613      1614      2216      2294      1064
 -1      2156    6    0    1
 -2       273        70        77       278      2299       819      1749      1291      2073      2167
 -1      2157    6    0    1
 -2       324       353       168       352      1526      1980      1981      1527       769      2257
 -1      2158    6    0    1
 -2       343       342       172       314       758      1651      1933      1532      1531      2208
 -1      2159    6    0    1
 -2        70        71       353       168       433      2154      2153      1020      1017      1980
 -1      2160    6    0    1
 -2       185       184       361       374       570      1097      1096      1223      1209      2300
 -1      2161    6    0    1
 -2       207       361       184       374      2185      1097      1206      1208      2300      1209
 -1      2162    6    0    1
 -2       185       361       362       364      1096      1100      1099      2301      1863      2302
 -1      2163    6    0    1
 -2       376       208       185       365      1214      1212      1215      2303      1138      2304
 -1      2164    6    0    1
 -2       186       185       362       365       571      1099      1098      2305      2304      2205
 -1      2165    6    0    1
 -2       208       207       185       364       597      1213      1212      1137      1136      2301
 -1      2166    6    0    1
 -2       186       376       185       365      1231      1215       571      2305      2303      2304
 -1      2167    6    0    1
 -2       207       374       185       361      1208      1223      1213      2185      2300      1096
 -1      2168    6    0    1
 -2       186       194       187       203      1102      1101       572      2306      1176      2307
 -1      2169    6    0    1
 -2       193       194       186       203       580      1102      1122      1177      1176      2306
 -1      2170    6    0    1
 -2        70       353        71       278      2153      2154       433      2073      1484      1894
 -1      2171    6    0    1
 -2       209       208       186       365       598      1217      1216      1139      1138      2305
 -1      2172    6    0    1
 -2       186       187       377       203       572      1232      1219      2306      2307      2268
 -1      2173    6    0    1
 -2       208       376       186       365      1214      1231      1217      1138      2303      2305
 -1      2174    6    0    1
 -2       273        70        76        77      2299       818      2235      1749       819       440
 -1      2175    6    0    1
 -2       298       115        11       123      2290       850      2273      2223       851       496
 -1      2176    6    0    1
 -2       210       187       378       203      1227      1230      1229      1129      2307      2308
 -1      2177    6    0    1
 -2       394        38       341       313      2309       756      2215      2310      1545      1571
 -1      2178    6    0    1
 -2       273        70       272        76      2299      2074       678      2235       818      2232
 -1      2179    6    0    1
 -2       195       196       188       204       582      1105      1119      1172      1171      2311
 -1      2180    6    0    1
 -2       273        70       278       272      2299      2073      1291       678      2074      1294
 -1      2181    6    0    1
 -2       188       211       378       204      1224      1226      1225      2311      1131      2312
 -1      2182    6    0    1
 -2       189       211       188       205      1221      1224       574      2142      1133      2249
 -1      2183    6    0    1
 -2       189       190       375       366       575      1210      1233      2038      1861      2313
 -1      2184    6    0    1
 -2       165       321        14        13      2151      2239       542      1031      2210       559
 -1      2185    6    0    1
 -2       213       212       189       366       602      1220      1222      1147      1149      2038
 -1      2186    6    0    1
 -2       375       213       189       366      1211      1222      1233      2313      1147      2038
 -1      2187    6    0    1
 -2       366       189       205       212      2038      2142      1148      1149      1220      1140
 -1      2188    6    0    1
 -2       212       211       189       205       601      1221      1220      1140      1133      2142
 -1      2189    6    0    1
 -2       213       375       190       366      1211      1210      1207      1147      2313      1861
 -1      2190    6    0    1
 -2       200       191       364       367      1153      1864      1125      1156      1155      2314
 -1      2191    6    0    1
 -2       191       361       364       192      1108      1863      1864       578      1109      2315
 -1      2192    6    0    1
 -2       367       201       191       364      1173      1160      1155      2314      1124      1864
 -1      2193    6    0    1
 -2       201       192       191       364      1159       578      1160      1124      2315      1864
 -1      2194    6    0    1
 -2       192       201       369       365      1159      1162      1161      2204      1127      2316
 -1      2195    6    0    1
 -2       362       361       192       364      1100      1109      1110      2302      1863      2315
 -1      2196    6    0    1
 -2       369       202       192       365      1179      1164      1161      2316      1126      2204
 -1      2197    6    0    1
 -2       393        38       350        31      2317       766      2261      2259      1426      1439
 -1      2198    6    0    1
 -2       165        14       321       350       542      2239      2151      2144      2240      1515
 -1      2199    6    0    1
 -2       371       203       193       186      1181      1177      1169      2318      2306      1122
 -1      2200    6    0    1
 -2       204       397       203       378      2319      2320       592      2312      2321      2308
 -1      2201    6    0    1
 -2       204       372       203       397      1174      1183       592      2319      2322      2320
 -1      2202    6    0    1
 -2       204       370       196       188      1180      1168      1171      2311      2251      1105
 -1      2203    6    0    1
 -2       201       367       200       364      1173      1156       589      1124      2314      1125
 -1      2204    6    0    1
 -2       364       365       201       192      1128      1127      1124      2315      2204      1159
 -1      2205    6    0    1
 -2       202       369       201       365      1179      1162       590      1126      2316      1127
 -1      2206    6    0    1
 -2       164        14       341       394       541      1888      1614      2214      2323      2215
 -1      2207    6    0    1
 -2       210       211       203       378       600      1132      1129      1229      1226      2308
 -1      2208    6    0    1
 -2       394        38        14       341      2309      2237      2323      2215       756      1888
 -1      2209    6    0    1
 -2       204       211       205       188      1131      1133       593      2311      1224      2249
 -1      2210    6    0    1
 -2       204       205       370       188       593      1167      1180      2311      2249      2251
 -1      2211    6    0    1
 -2       364       361       207       185      1863      2185      1136      2301      1096      1213
 -1      2212    6    0    1
 -2       365       364       208       185      1128      1137      1138      2304      2301      1212
 -1      2213    6    0    1
 -2       230       379       214       357      1235      1250      1234      1621      2141      2193
 -1      2214    6    0    1
 -2       379       215       214       357      1253       605      1250      2141      2183      2193
 -1      2215    6    0    1
 -2       379       243       215       357      1248      1249      1253      2141      2140      2183
 -1      2216    6    0    1
 -2       241       379       231        48      1252      1236      1237      2131      2059      2245
 -1      2217    6    0    1
 -2       336       241       240        49      1479       639      1419      2246      1662      1663
 -1      2218    6    0    1
 -2       336       385       241        49      1498      1464      1479      2246      2243      1662
 -1      2219    6    0    1
 -2       394        38        37        14      2309       774      2324      2323      2237      2238
 -1      2220    6    0    1
 -2       253       254       245        97       654      1257      1262      2325      2221      2284
 -1      2221    6    0    1
 -2       246       253       245        97      1263      1262       645      2326      2325      2284
 -1      2222    6    0    1
 -2       251       252       248        98       652      1265      1258      2285      1915      1914
 -1      2223    6    0    1
 -2       393        38        14       350      2317      2237      1885      2261       766      2240
 -1      2224    6    0    1
 -2       279        75       272        70      2092      2256      1293      2075       817      2074
 -1      2225    6    0    1
 -2       391       345       253       175      1506      1482      1507      2289      2298      2327
 -1      2226    6    0    1
 -2       345       344       253       175       760      1483      1482      2298      2277      2327
 -1      2227    6    0    1
 -2       253       344       254        97      1483      1432       654      2325      2219      2221
 -1      2228    6    0    1
 -2       279       272        75       271      1293      2256      2092      1289       677      1859
 -1      2229    6    0    1
 -2       257       268       256        88      1270      1269       659      2173      1866      2065
 -1      2230    6    0    1
 -2       258       266       267        90      1279       670      1275      1609      2274      2168
 -1      2231    6    0    1
 -2       260       265       259        91      1278      1281       662      2182      2181      1831
 -1      2232    6    0    1
 -2       393        38       341        14      2317       756      1887      1885      2237      1888
 -1      2233    6    0    1
 -2       285       284       267       110       694      1458      1502      2126      1635      2266
 -1      2234    6    0    1
 -2       393        38        31       341      2317      1426      2259      1887       756      1427
 -1      2235    6    0    1
 -2       341       313       312       137      1571       724      1570      2216      2226      2227
 -1      2236    6    0    1
 -2       340       341       312       137       755      1570      1569      2294      2216      2227
 -1      2237    6    0    1
 -2       345       391       392       175      1506      1512      1511      2298      2289      2328
 -1      2238    6    0    1
 -2       394        38       313        37      2309      1545      2310      2324       774       725
 -1      2239    6    0    1
 -2       204       397       188       195      2319      2329      2311      1172      2330      1119
 -1      2240    6    0    1
 -2        53         1        23        31       777      2195      2196      2179      2198       633
 -1      2241    6    0    1
 -2        68         1        31        23       807      2198      1928      2016      2195       633
 -1      2242    6    0    1
 -2       137        67        23       312       883      2197      2200      2227      1847      1334
 -1      2243    6    0    1
 -2       188       397       204       378      2329      2319      2311      1225      2321      2312
 -1      2244    6    0    1
 -2       378       194       187       188      2331      1101      1230      1225      1103       573
 -1      2245    6    0    1
 -2       188       397       194       195      2329      2332      1103      1119      2330       581
 -1      2246    6    0    1
 -2       198        47       395       215      2207      2275      2228      1953      2177      2276
 -1      2247    6    0    1
 -2       198        47        46       395      2207       406      2160      2228      2275      2213
 -1      2248    6    0    1
 -2       378       194       203       187      2331      1176      2308      1230      1101      2307
 -1      2249    6    0    1
 -2       194       397       188       378      2332      2329      1103      2331      2321      1225
 -1      2250    6    0    1
 -2       393       165       164         5      2260       971      1886      2262      1014      1013
 -1      2251    6    0    1
 -2       393       165        14       164      2260       542      1885      1886       971       541
 -1      2252    6    0    1
 -2       194       397       203       195      2332      2320      1176       581      2330      1178
 -1      2253    6    0    1
 -2       199        25        61        60       587      2230      2229      2047      2041       421
 -1      2254    6    0    1
 -2       203       397       194       378      2320      2332      1176      2308      2321      2331
 -1      2255    6    0    1
 -2       198        47       215        27      2207      2177      1953       585      2176      2175
 -1      2256    6    0    1
 -2       393       165       350        14      2260      2144      2261      1885       542      2240
 -1      2257    6    0    1
 -2       365       186       193       362      2305      1122      2202      2205      1098      1111
 -1      2258    6    0    1
 -2       186       371       209       365      2318      2333      1216      2305      2203      1139
 -1      2259    6    0    1
 -2       186       209       371       377      1216      2333      2318      1219      1218      2269
 -1      2260    6    0    1
 -2       365       193       186       371      2202      1122      2305      2203      1169      2318
 -1      2261    6    0    1
 -2        98       392       175       176      2178      2328      1029      1026      2286       554
 -1      2262    6    0    1
 -2        98       175       392       391      1029      2328      2178      2288      2289      1512
 -1      2263    6    0    1
 -2       253        98        97       247      2334       465      2325      1266      1913      2335
 -1      2264    6    0    1
 -2       160        49       336       240       966      2246      1927      2024      1663      1419
 -1      2265    6    0    1
 -2       239        65        64       233      2247       425      1907      1240      2026      1908
 -1      2266    6    0    1
 -2       352       141       140       167      2295       515      1694      1695      1045      1042
 -1      2267    6    0    1
 -2       352       140       141       324      1694       515      2295      1527      1967      2080
 -1      2268    6    0    1
 -2       285       267        83       110      1502      2296      2135      2126      2266      1023
 -1      2269    6    0    1
 -2        97       391       175       360      2336      2289      1007      1027      2287      1028
 -1      2270    6    0    1
 -2        97       391       253       175      2336      1507      2325      1007      2289      2327
 -1      2271    6    0    1
 -2       285        83       267       266      2135      2296      1502      1503      2134       670
 -1      2272    6    0    1
 -2       260       120       294       295      2337      1788      1404      1389      1822       705
 -1      2273    6    0    1
 -2       260       120        91       294      2337       949      2182      1404      1788      2152
 -1      2274    6    0    1
 -2       175        97       344       253      1007      2219      2277      2327      2325      1483
 -1      2275    6    0    1
 -2        97       103       245       246       845      2283      2284      2326      2067       645
 -1      2276    6    0    1
 -2       253        98       391        97      2334      2288      1507      2325       465      2336
 -1      2277    6    0    1
 -2       260       120        92        91      2337       940      2253      2182       949       458
 -1      2278    6    0    1
 -2       247       103        98        97      2291       848      1913      2335       845       465
 -1      2279    6    0    1
 -2       260       120       295        92      2337      1822      1389      2253       940      2034
 -1      2280    6    0    1
 -2       341       313       137       394      1571      2226      2216      2215      2310      2217
 -1      2281    6    0    1
 -2       253        98       252       391      2334      1915       653      1507      2288      1510
 -1      2282    6    0    1
 -2       362       185       364       365      1099      2301      2302      2205      2304      1128
 -1      2283    6    0    1
 -2       203       187       377       396      2307      1232      2268      2271      2278      2270
 -1      2284    6    0    1
 -2       317       175       176       148      2297       554      2101      1745      1060      1061
 -1      2285    6    0    1
 -2       253        98       247       252      2334      1913      1266       653      1915      1264
 -1      2286    6    0    1
 -2       247       103        97       246      2291       845      2335       646      2067      2326
 -1      2287    6    0    1
 -2       202       371       209       396      1170      2333      1150      2338      2272      2279
 -1      2288    6    0    1
 -2       352        69        70       167      2121       432      2191      1695      1003      1019
 -1      2289    6    0    1
 -2       204       211       378       203      1131      1226      2312       592      1132      2308
 -1      2290    6    0    1
 -2       192       362       364       365      1110      2302      2315      2204      2205      1128
 -1      2291    6    0    1
 -2       352        70        69       279      2191       432      2121      1455      2075      2091
 -1      2292    6    0    1
 -2       210       202       209       396      1130      1150       599      2280      2338      2279
 -1      2293    6    0    1
 -2       186       371       203       377      2318      1181      2306      1219      2269      2268
 -1      2294    6    0    1
 -2       202       209       371       365      1150      2333      1170      1126      1139      2203
 -1      2295    6    0    1
 -2        14       321        37        13      2239       734      2238       559      2210      2282
 -1      2296    6    0    1
 -2        97        98       391       360       465      2288      2336      1027      1030      2287
 -1      2297    6    0    1
 -2       210       187       203       396      1227      2307      1129      2280      2278      2271
 -1      2298    6    0    1
 -2       175       346       392       345      2339      1509      2328      2298       761      1511
 -1      2299    6    0    1
 -2       246       253        97       247      1263      2325      2326       646      1266      2335
 -1      2300    6    0    1
 -2       175       346       176       392      2339      1667       554      2328      1509      2286
 -1      2301    6    0    1
 -2        37        14        13       394      2238       559      2282      2324      2323      2218
 -1      2302    6    0    1
 -2       104       103        98       247       472       848       847      1702      2291      1913
 -1      2303    6    0    1
 -2       313        37       137       394       725      2225      2226      2310      2324      2217
 -1      2304    6    0    1
 -2       209       371       377       396      2333      2269      1218      2279      2272      2270
 -1      2305    6    0    1
 -2       175       346       317       176      2339      1543      2297       554      1667      2101
 -1      2306    6    0    1
 -2       199       395       214       198      2222      2264      2012       586      2228      1954
 -1      2307    6    0    1
 -2       214       395       215       198      2264      2276       605      1954      2228      1953
 -1      2308    6    0    1
 -2        13        14       164       394       559       541      1063      2218      2323      2214
 -1      2309    6    0    1
 -2       203       371       202       396      1181      1170       591      2271      2272      2338
 -1      2310    6    0    1
 -2       203       202       210       396       591      1130      1129      2271      2338      2280
 -1      2311    6    0    1
 -2       214       357       215       395      2193      2183       605      2264      2265      2276
 -1      2312    6    0    1
 -2       175       346       345       317      2339       761      2298      2297      1543      1542
 -1      2313    6    0    1
 -2       394        13        37       137      2218      2282      2324      2217       511      2225
 -1      2314    6    0    1
 -2       195       203       372       397      1178      1183      1175      2330      2320      2322
 -1      2315    6    0    1
 -2       195       372       204       397      1175      1174      1172      2330      2322      2319
 -3
    1PSTEP                         1           1           1          
  100CL  101 1.000000000        2339                     0    1           1
 -4  DISP        4    1
 -5  D1          1    2    1    0
 -5  D2          1    2    2    0
 -5  D3          1    2    3    0
 -5  ALL         1    2    0    0    1ALL
 -1         1 1.08741E+00 1.88858E-01 1.37525E-01
 -1         2-2.55456E-01-9.35272E-02-3.69999E-02
 -1         3 1.22048E+01-9.26791E+01-1.37260E+00
 -1         4-1.06996E+00-9.10848E+01-3.60337E-01
 -1         5 1.08882E+00 1.80140E-01-1.48410E-01
 -1         6-2.54909E-01-1.00671E-01 4.35340E-02
 -1         7 1.22801E+01-9.27423E+01-1.26563E+00
 -1         8-1.02049E+00-9.11416E+01-5.38649E-01
 -1         9 1.30862E-02 1.78504E-02-1.36978E-03
 -1        10 2.06359E-02 1.77581E-02 2.34019E-03
 -1        11 1.67750E+00-9.32868E+01-4.65157E-01
 -1        12 1.68441E+00-9.33385E+01-3.97187E-01
 -1        13 4.69404E-02 3.46411E-02 6.47439E-03
 -1        14 4.22887E-02 2.43889E-02-6.15271E-03
 -1        15 1.24450E+01-9.21355E+01-1.39863E+00
 -1        16 1.25028E+01-9.21844E+01-1.44457E+00
 -1        17 1.90000E+01-4.63102E+01-6.58946E-01
 -1        18 1.90000E+01-4.63102E+01-6.58946E-01
 -1        19 1.90000E+01-4.62895E+01-6.58946E-01
 -1        20 1.90000E+01-4.62895E+01-6.58946E-01
 -1        21-1.36447E+00-9.07754E+01-3.65137E-01
 -1        22-2.80280E-01-1.39318E-01-5.20246E-02
 -1        23 1.00048E+00 2.12983E-01 1.52699E-01
 -1        24 1.86153E+01-4.57948E+01-4.05133E-01
 -1        25 1.90000E+01-4.67727E+01-4.63795E-01
 -1        26 1.21383E+01-9.27329E+01-1.35889E+00
 -1        27 1.90000E+01-4.67118E+01-6.45410E-01
 -1        28 1.86092E+01-4.58094E+01-7.33864E-01
 -1        29 1.22500E+01-9.28011E+01-1.24200E+00
 -1        30-1.34309E+00-9.08139E+01-5.43402E-01
 -1        31 1.03533E+00 2.00515E-01-1.55252E-01
 -1        32-2.94436E-01-1.40873E-01 6.17030E-02
 -1        33 0.00000E+00 0.00000E+00 0.00000E+00
 -1        34 0.00000E+00 0.00000E+00 0.00000E+00
 -1        35 1.95964E+00-9.36049E+01-5.16697E-01
 -1        36 1.97378E+00-9.36595E+01-3.48832E-01
 -1        37 0.00000E+00 0.00000E+00 0.00000E+00
 -1        38 0.00000E+00 0.00000E+00 0.00000E+00
 -1        39 1.24977E+01-9.20885E+01-1.38940E+00
 -1        40 1.25682E+01-9.21479E+01-1.47998E+00
 -1        41 1.26722E+01-9.25691E+01-1.14209E+00
 -1        42 1.36860E+01-8.84371E+01-9.35753E-01
 -1        43 1.47556E+01-8.00463E+01-7.64070E-01
 -1        44 1.56453E+01-7.08709E+01-6.47099E-01
 -1        45 1.64746E+01-6.07997E+01-5.49135E-01
 -1        46 1.70837E+01-5.25044E+01-4.64251E-01
 -1        47 1.73369E+01-4.56774E+01-6.83903E-01
 -1        48 1.60239E+01-3.81944E+01-7.98961E-01
 -1        49 1.41140E+01-2.86349E+01-6.83533E-01
 -1        50 1.15784E+01-1.80009E+01-5.86026E-01
 -1        51 8.35995E+00-7.98957E+00-4.62509E-01
 -1        52 4.74616E+00-1.44078E+00-3.33048E-01
 -1        53 2.35651E+00 2.81681E-01-1.99736E-01
 -1        54 1.25527E+01-9.25838E+01-1.25007E+00
 -1        55 1.33074E+01-9.00698E+01-1.11918E+00
 -1        56 1.43914E+01-8.26406E+01-9.56019E-01
 -1        57 1.53528E+01-7.33220E+01-8.40588E-01
 -1        58 1.61923E+01-6.35841E+01-7.64196E-01
 -1        59 1.67953E+01-5.56642E+01-7.36535E-01
 -1        60 1.72219E+01-4.95262E+01-6.39925E-01
 -1        61 1.70313E+01-4.41539E+01-3.69529E-01
 -1        62 1.60234E+01-3.85659E+01-2.50184E-01
 -1        63 1.42026E+01-2.92980E+01-2.14752E-01
 -1        64 1.16620E+01-1.84958E+01-1.39965E-01
 -1        65 8.33984E+00-8.04244E+00-3.06901E-02
 -1        66 4.78811E+00-1.50631E+00 8.12806E-02
 -1        67 2.49041E+00 1.97285E-01 1.24360E-01
 -1        68 1.30633E-01 8.16461E-02 1.21703E-02
 -1        69-8.00668E-03 2.61404E-02 1.07110E-02
 -1        70 8.38230E-05 3.70605E-03 2.26126E-03
 -1        71-1.44304E-03-4.77741E-03-6.44344E-04
 -1        72 6.43644E-03-2.16282E-02 3.71035E-03
 -1        73-8.96784E-02-6.37114E-02 2.26678E-02
 -1        74 8.47375E-02 8.42605E-02 4.48432E-02
 -1        75-6.49593E-04 1.79041E-02 1.15096E-02
 -1        76 5.28554E-04 2.14230E-03 1.56348E-03
 -1        77-1.00348E-03-3.80970E-03-1.18799E-03
 -1        78 4.66872E-03-1.78484E-02-4.66005E-03
 -1        79-7.24108E-02-5.96985E-02-2.15610E-02
 -1        80-6.44535E-01-1.27835E+00 5.77576E-02
 -1        81-1.25847E+00-5.56643E+00 3.42612E-02
 -1        82-1.72208E+00-1.46846E+01-2.38863E-02
 -1        83-2.02161E+00-3.52525E+01-1.40646E-01
 -1        84-2.11984E+00-5.76305E+01-2.86586E-01
 -1        85-1.97570E+00-7.38644E+01-3.95573E-01
 -1        86-1.43892E+00-8.60266E+01-4.69946E-01
 -1        87-6.66666E-01-1.36459E+00-4.58207E-02
 -1        88-1.21869E+00-4.96229E+00-4.06118E-02
 -1        89-1.66684E+00-1.23316E+01-4.73196E-02
 -1        90-1.95995E+00-2.66079E+01-9.81980E-02
 -1        91-2.12559E+00-4.85762E+01-2.26644E-01
 -1        92-2.11100E+00-6.65584E+01-3.25747E-01
 -1        93-1.86147E+00-7.88132E+01-3.69828E-01
 -1        94-1.39593E+00-8.68773E+01-3.92746E-01
 -1        95-3.06714E+00-9.14491E+01-5.56787E-01
 -1        96-4.31467E+00-9.19802E+01-6.39465E-01
 -1        97-3.60228E+00-9.25834E+01-7.30892E-01
 -1        98 3.10130E+00-9.31457E+01-9.83832E-01
 -1        99 8.54813E+00-9.31025E+01-1.14084E+00
 -1       100 1.12201E+01-9.28828E+01-1.22690E+00
 -1       101-3.30142E+00-9.14613E+01-4.50459E-01
 -1       102-4.42748E+00-9.20173E+01-5.51266E-01
 -1       103-3.19292E+00-9.26110E+01-7.04733E-01
 -1       104 2.32779E+00-9.30553E+01-9.42344E-01
 -1       105 7.98241E+00-9.30661E+01-1.14738E+00
 -1       106 1.09238E+01-9.28595E+01-1.26408E+00
 -1       107 4.44035E-01-3.06737E-01-7.08239E-02
 -1       108 1.17469E+00-2.84838E+00-4.29941E-02
 -1       109 1.84424E+00-9.79519E+00-3.85493E-02
 -1       110 2.35168E+00-2.45607E+01-8.33334E-02
 -1       111 2.66804E+00-4.50503E+01-1.75451E-01
 -1       112 2.79310E+00-6.46472E+01-2.56434E-01
 -1       113 2.62898E+00-7.81866E+01-3.02944E-01
 -1       114 2.25526E+00-8.64057E+01-3.36424E-01
 -1       115 1.83137E+00-9.09105E+01-3.99239E-01
 -1       116 5.76317E-01-5.14033E-01 6.46191E-02
 -1       117 1.38138E+00-4.35707E+00 5.46152E-02
 -1       118 2.04567E+00-1.43740E+01 1.00770E-03
 -1       119 2.46972E+00-3.21840E+01-8.91508E-02
 -1       120 2.74406E+00-5.60214E+01-2.09900E-01
 -1       121 2.71208E+00-7.32943E+01-3.02451E-01
 -1       122 2.35477E+00-8.43829E+01-3.78661E-01
 -1       123 1.86072E+00-9.02983E+01-4.15637E-01
 -1       124 1.23062E+01-9.26878E+01-1.32979E+00
 -1       125 1.18647E+01-9.23345E+01-1.18301E+00
 -1       126 1.10952E+01-8.88892E+01-1.00245E+00
 -1       127 1.00983E+01-8.07603E+01-8.21735E-01
 -1       128 9.23146E+00-7.14230E+01-6.98827E-01
 -1       129 8.40632E+00-6.09282E+01-6.01305E-01
 -1       130 7.81043E+00-5.22293E+01-5.47632E-01
 -1       131 7.34115E+00-4.37935E+01-5.00519E-01
 -1       132 6.86630E+00-3.34585E+01-4.41141E-01
 -1       133 6.21939E+00-2.25895E+01-3.57382E-01
 -1       134 5.20629E+00-1.16647E+01-2.43200E-01
 -1       135 3.67999E+00-2.87802E+00-1.00499E-01
 -1       136 2.40599E+00 1.22118E-01 5.32165E-03
 -1       137 1.35965E+00 6.08463E-01 1.19854E-01
 -1       138 7.02073E-03-1.84917E-02 7.58585E-03
 -1       139-2.26908E-03 8.54951E-04 2.99442E-03
 -1       140 3.43707E-05 4.85298E-04 3.61889E-04
 -1       141 4.45872E-06-2.53761E-05 2.06404E-05
 -1       142-4.90813E-05-4.49513E-04-1.01622E-04
 -1       143 3.25118E-04-3.26115E-03-7.00649E-04
 -1       144-5.30587E-03-6.61456E-03-7.08992E-03
 -1       145-1.66061E+00-9.30549E+01-5.16666E-01
 -1       146-4.05148E+00-9.24854E+01-6.33010E-01
 -1       147-4.05109E+00-9.18973E+01-7.51980E-01
 -1       148-3.16239E-01-9.14947E+01-9.16281E-01
 -1       149 5.70061E+00-9.14107E+01-1.11945E+00
 -1       150 1.00486E+01-9.16618E+01-1.25494E+00
 -1       151 1.19551E+01-9.19982E+01-1.35362E+00
 -1       152 1.23734E+01-9.27360E+01-1.36617E+00
 -1       153 1.18203E+01-9.20561E+01-1.23468E+00
 -1       154 1.07512E+01-8.60133E+01-1.03677E+00
 -1       155 9.78267E+00-7.69807E+01-9.06498E-01
 -1       156 8.94025E+00-6.72254E+01-8.16938E-01
 -1       157 8.06267E+00-5.53629E+01-7.32092E-01
 -1       158 7.50346E+00-4.59327E+01-6.59342E-01
 -1       159 7.02974E+00-3.57551E+01-5.80872E-01
 -1       160 6.38382E+00-2.42423E+01-5.06383E-01
 -1       161 5.43032E+00-1.31776E+01-4.18114E-01
 -1       162 3.95441E+00-3.81149E+00-3.02608E-01
 -1       163 2.37547E+00 1.81585E-01-1.94265E-01
 -1       164 1.33957E+00 6.11973E-01-1.64559E-01
 -1       165 1.47181E-02-1.12742E-02-7.19363E-03
 -1       166 5.30048E-04-2.28695E-03-4.46389E-03
 -1       167 2.62806E-05 7.11476E-04-3.51582E-04
 -1       168-1.99442E-05 1.09589E-05-2.77332E-05
 -1       169-1.68411E-04-5.49260E-04-3.71047E-05
 -1       170 3.12390E-04-3.93566E-03 3.05263E-03
 -1       171-5.60998E-03-5.48836E-03 4.65486E-03
 -1       172-1.36106E+00-9.31409E+01-4.78323E-01
 -1       173-3.49416E+00-9.27147E+01-5.24512E-01
 -1       174-4.39940E+00-9.22560E+01-6.08902E-01
 -1       175-3.36800E+00-9.17988E+01-7.38112E-01
 -1       176 3.70081E+00-9.14405E+01-1.04344E+00
 -1       177 8.41518E+00-9.15691E+01-1.22590E+00
 -1       178 1.10060E+01-9.18213E+01-1.31796E+00
 -1       179 1.21133E+01-9.20834E+01-1.38839E+00
 -1       180 1.90000E+01-4.63040E+01-6.58946E-01
 -1       181 1.90000E+01-4.62961E+01-6.58946E-01
 -1       182 1.90000E+01-4.62962E+01-6.58946E-01
 -1       183 1.90000E+01-4.63041E+01-6.58946E-01
 -1       184 1.90000E+01-4.62745E+01-5.40101E-01
 -1       185 1.90000E+01-4.62973E+01-5.73714E-01
 -1       186 1.90000E+01-4.62894E+01-5.86497E-01
 -1       187 1.90000E+01-4.62895E+01-6.06642E-01
 -1       188 1.90000E+01-4.62895E+01-6.28251E-01
 -1       189 1.90000E+01-4.62895E+01-6.43239E-01
 -1       190 1.90000E+01-4.62895E+01-6.52539E-01
 -1       191 1.90000E+01-4.62876E+01-5.66586E-01
 -1       192 1.90000E+01-4.63075E+01-5.76473E-01
 -1       193 1.90000E+01-4.63098E+01-5.87258E-01
 -1       194 1.90000E+01-4.63100E+01-6.07365E-01
 -1       195 1.90000E+01-4.63101E+01-6.27742E-01
 -1       196 1.90000E+01-4.63102E+01-6.43025E-01
 -1       197 1.90000E+01-4.63102E+01-6.52435E-01
 -1       198 1.90000E+01-4.66337E+01-5.95919E-01
 -1       199 1.90000E+01-4.66481E+01-5.25308E-01
 -1       200 1.90212E+01-4.63638E+01-6.19557E-01
 -1       201 1.90009E+01-4.63063E+01-5.77109E-01
 -1       202 1.90000E+01-4.63099E+01-5.87276E-01
 -1       203 1.90000E+01-4.63100E+01-6.07359E-01
 -1       204 1.90000E+01-4.63101E+01-6.27742E-01
 -1       205 1.90000E+01-4.63102E+01-6.43025E-01
 -1       206 1.90000E+01-4.63102E+01-6.52435E-01
 -1       207 1.90059E+01-4.63178E+01-5.59849E-01
 -1       208 1.89985E+01-4.62935E+01-5.73539E-01
 -1       209 1.90001E+01-4.62895E+01-5.86502E-01
 -1       210 1.90000E+01-4.62894E+01-6.06649E-01
 -1       211 1.90000E+01-4.62895E+01-6.28250E-01
 -1       212 1.90000E+01-4.62895E+01-6.43239E-01
 -1       213 1.90000E+01-4.62895E+01-6.52539E-01
 -1       214 1.87974E+01-4.58501E+01-5.07002E-01
 -1       215 1.88404E+01-4.58475E+01-6.01649E-01
 -1       216 1.27005E+01-9.24468E+01-1.24937E+00
 -1       217 1.36451E+01-8.96466E+01-1.12688E+00
 -1       218 1.50253E+01-8.16774E+01-9.71217E-01
 -1       219 1.61450E+01-7.27813E+01-8.72206E-01
 -1       220 1.70352E+01-6.44954E+01-8.10982E-01
 -1       221 1.77444E+01-5.71437E+01-7.90459E-01
 -1       222 1.82184E+01-5.13451E+01-7.58098E-01
 -1       223 1.82859E+01-5.14884E+01-3.98134E-01
 -1       224 1.78113E+01-5.71951E+01-4.45874E-01
 -1       225 1.71223E+01-6.44568E+01-5.28975E-01
 -1       226 1.61822E+01-7.32329E+01-6.27693E-01
 -1       227 1.50593E+01-8.20982E+01-7.62213E-01
 -1       228 1.36865E+01-8.99238E+01-9.58384E-01
 -1       229 1.27822E+01-9.25237E+01-1.11544E+00
 -1       230 1.77043E+01-4.16826E+01-1.71273E-01
 -1       231 1.64591E+01-3.53337E+01-1.38658E-01
 -1       232 1.41759E+01-2.52987E+01-1.00227E-01
 -1       233 1.12540E+01-1.48384E+01-2.26344E-02
 -1       234 6.87587E+00-4.18695E+00 1.05079E-01
 -1       235 3.38355E+00-2.20290E-01 1.83929E-01
 -1       236 2.93995E+00 3.07816E-02-2.90867E-01
 -1       237 5.43339E+00-2.02949E+00-4.12153E-01
 -1       238 9.03988E+00-8.54933E+00-5.43139E-01
 -1       239 1.18760E+01-1.66596E+01-6.50191E-01
 -1       240 1.40902E+01-2.47099E+01-7.34969E-01
 -1       241 1.56851E+01-3.14648E+01-8.01482E-01
 -1       242 1.68940E+01-3.70653E+01-8.83807E-01
 -1       243 1.78175E+01-4.19340E+01-8.96518E-01
 -1       244-3.43423E+00-9.13649E+01-4.46947E-01
 -1       245-4.43143E+00-9.20410E+01-5.44073E-01
 -1       246-3.09262E+00-9.27430E+01-6.94430E-01
 -1       247 2.28412E+00-9.32628E+01-9.31041E-01
 -1       248 7.85126E+00-9.32711E+01-1.13860E+00
 -1       249 1.07594E+01-9.30202E+01-1.25210E+00
 -1       250 1.09692E+01-9.30669E+01-1.21202E+00
 -1       251 8.29383E+00-9.33216E+01-1.12293E+00
 -1       252 3.14411E+00-9.33795E+01-9.82893E-01
 -1       253-3.43155E+00-9.27342E+01-7.43037E-01
 -1       254-4.35205E+00-9.20241E+01-6.53660E-01
 -1       255-3.33636E+00-9.14129E+01-5.66207E-01
 -1       256-1.02971E+00-1.93842E+00-7.70007E-02
 -1       257-1.74448E+00-6.78941E+00-6.79291E-02
 -1       258-2.30376E+00-1.74110E+01-7.61654E-02
 -1       259-2.63453E+00-3.65084E+01-1.66161E-01
 -1       260-2.76107E+00-5.97718E+01-3.07796E-01
 -1       261-2.55900E+00-7.54104E+01-3.73701E-01
 -1       262-2.00514E+00-8.53559E+01-3.88918E-01
 -1       263-2.02957E+00-8.46762E+01-4.76966E-01
 -1       264-2.59964E+00-7.28250E+01-3.95784E-01
 -1       265-2.73653E+00-5.72014E+01-2.82349E-01
 -1       266-2.59719E+00-3.57058E+01-1.35075E-01
 -1       267-2.24340E+00-1.59947E+01-1.79833E-02
 -1       268-1.71598E+00-6.53335E+00 4.85715E-02
 -1       269-9.60318E-01-1.68592E+00 8.88685E-02
 -1       270 4.17880E-02 1.03555E-01 1.76992E-02
 -1       271-1.45676E-03 1.67141E-02 1.01351E-02
 -1       272 5.94659E-04 2.10346E-03 1.52033E-03
 -1       273-9.56758E-04-3.74079E-03-1.30253E-03
 -1       274 4.55373E-03-1.66324E-02-4.38987E-03
 -1       275-4.36986E-02-4.90595E-02-1.02147E-02
 -1       276-3.39823E-02-4.74312E-02 1.77789E-03
 -1       277 5.18888E-03-1.99276E-02 1.65983E-03
 -1       278-8.49521E-04-4.19089E-03-5.95011E-04
 -1       279 8.02345E-05 4.23065E-03 3.05431E-03
 -1       280-1.18123E-02 2.57542E-02 1.63622E-02
 -1       281 5.17849E-02 1.04029E-01 6.01068E-02
 -1       282 5.94518E-01-3.89820E-01-1.05188E-01
 -1       283 1.62084E+00-3.79621E+00-6.29974E-02
 -1       284 2.43304E+00-1.23839E+01-4.63000E-02
 -1       285 3.04526E+00-3.15718E+01-1.10482E-01
 -1       286 3.37691E+00-5.49306E+01-2.06220E-01
 -1       287 3.34899E+00-7.25348E+01-2.60348E-01
 -1       288 2.91135E+00-8.40304E+01-2.88383E-01
 -1       289 2.29282E+00-9.01000E+01-3.39470E-01
 -1       290 5.21758E-01-3.05988E-01 8.82173E-02
 -1       291 1.43862E+00-2.74621E+00 8.95367E-02
 -1       292 2.28500E+00-1.02405E+01 3.58779E-02
 -1       293 2.83507E+00-2.35713E+01-3.97504E-02
 -1       294 3.21967E+00-4.41237E+01-1.47243E-01
 -1       295 3.37849E+00-6.42203E+01-2.52712E-01
 -1       296 3.17843E+00-7.80297E+01-3.47217E-01
 -1       297 2.68102E+00-8.64565E+01-4.23157E-01
 -1       298 2.10271E+00-9.10524E+01-4.47952E-01
 -1       299 1.23775E+01-9.25964E+01-1.33521E+00
 -1       300 1.19055E+01-9.25851E+01-1.18895E+00
 -1       301 1.10884E+01-9.02694E+01-1.01813E+00
 -1       302 9.90258E+00-8.35418E+01-8.31380E-01
 -1       303 8.78569E+00-7.45756E+01-6.92079E-01
 -1       304 7.82612E+00-6.54090E+01-5.93629E-01
 -1       305 6.95700E+00-5.58541E+01-5.32247E-01
 -1       306 6.38564E+00-4.80468E+01-5.09180E-01
 -1       307 6.00440E+00-3.93446E+01-4.79524E-01
 -1       308 5.67098E+00-2.88057E+01-4.15733E-01
 -1       309 5.17174E+00-1.85539E+01-3.24312E-01
 -1       310 4.31129E+00-8.61870E+00-2.05370E-01
 -1       311 3.07247E+00-1.62635E+00-6.56828E-02
 -1       312 2.08803E+00 3.99077E-01 3.52298E-02
 -1       313 1.14851E+00 5.60477E-01 1.81454E-01
 -1       314-1.44943E+00-9.33483E+01-5.59537E-01
 -1       315-3.97991E+00-9.26134E+01-6.71841E-01
 -1       316-4.14545E+00-9.18478E+01-7.69734E-01
 -1       317-5.74602E-01-9.13177E+01-9.20727E-01
 -1       318 5.49786E+00-9.11752E+01-1.12104E+00
 -1       319 9.94853E+00-9.14735E+01-1.24416E+00
 -1       320 1.19298E+01-9.19042E+01-1.33370E+00
 -1       321 0.00000E+00 0.00000E+00 0.00000E+00
 -1       322 0.00000E+00 0.00000E+00 0.00000E+00
 -1       323 0.00000E+00 0.00000E+00 0.00000E+00
 -1       324 0.00000E+00 0.00000E+00 0.00000E+00
 -1       325 0.00000E+00 0.00000E+00 0.00000E+00
 -1       326 0.00000E+00 0.00000E+00 0.00000E+00
 -1       327 0.00000E+00 0.00000E+00 0.00000E+00
 -1       328 1.24037E+01-9.27648E+01-1.39998E+00
 -1       329 1.17097E+01-9.20914E+01-1.28157E+00
 -1       330 1.04010E+01-8.63054E+01-1.09063E+00
 -1       331 9.20753E+00-7.75882E+01-9.64432E-01
 -1       332 8.16296E+00-6.80914E+01-8.77403E-01
 -1       333 7.20384E+00-5.80231E+01-8.00693E-01
 -1       334 6.55446E+00-4.97437E+01-7.20426E-01
 -1       335 6.14897E+00-4.11937E+01-6.43616E-01
 -1       336 5.87320E+00-3.27238E+01-5.58552E-01
 -1       337 5.44663E+00-2.22339E+01-4.91190E-01
 -1       338 4.66766E+00-1.13333E+01-4.05159E-01
 -1       339 3.43732E+00-2.83529E+00-2.95135E-01
 -1       340 2.16483E+00 3.53898E-01-1.96623E-01
 -1       341 1.24205E+00 6.09780E-01-1.88711E-01
 -1       342-1.25689E+00-9.34468E+01-4.34416E-01
 -1       343-3.47394E+00-9.28655E+01-4.80787E-01
 -1       344-4.39888E+00-9.22892E+01-5.81825E-01
 -1       345-3.43249E+00-9.17006E+01-7.27112E-01
 -1       346 3.31191E+00-9.12254E+01-1.03094E+00
 -1       347 8.25502E+00-9.13662E+01-1.23254E+00
 -1       348 1.09301E+01-9.16667E+01-1.34632E+00
 -1       349 1.20976E+01-9.20139E+01-1.41697E+00
 -1       350 0.00000E+00 0.00000E+00 0.00000E+00
 -1       351 0.00000E+00 0.00000E+00 0.00000E+00
 -1       352 0.00000E+00 0.00000E+00 0.00000E+00
 -1       353 0.00000E+00 0.00000E+00 0.00000E+00
 -1       354 0.00000E+00 0.00000E+00 0.00000E+00
 -1       355 0.00000E+00 0.00000E+00 0.00000E+00
 -1       356 0.00000E+00 0.00000E+00 0.00000E+00
 -1       357 1.66516E+01-4.13997E+01-5.43330E-01
 -1       358 1.18089E+01-4.11678E+01-3.89146E-01
 -1       359 1.21756E+01-4.66842E+01-4.89184E-01
 -1       360-2.12166E+00-9.26294E+01-8.04801E-01
 -1       361 1.90000E+01-4.62559E+01-5.67177E-01
 -1       362 1.90000E+01-4.62997E+01-5.82367E-01
 -1       363 1.90000E+01-4.63001E+01-6.50697E-01
 -1       364 1.90104E+01-4.63117E+01-5.61582E-01
 -1       365 1.89998E+01-4.63005E+01-5.83013E-01
 -1       366 1.90000E+01-4.63001E+01-6.50697E-01
 -1       367 1.89984E+01-4.63097E+01-5.79551E-01
 -1       368 1.90000E+01-4.63102E+01-6.48502E-01
 -1       369 1.90001E+01-4.63084E+01-5.80502E-01
 -1       370 1.90000E+01-4.63101E+01-6.37433E-01
 -1       371 1.90000E+01-4.63100E+01-5.94207E-01
 -1       372 1.90000E+01-4.63101E+01-6.18815E-01
 -1       373 1.81121E+01-5.42294E+01-6.13278E-01
 -1       374 1.89955E+01-4.62944E+01-5.67880E-01
 -1       375 1.90000E+01-4.62895E+01-6.48608E-01
 -1       376 1.90000E+01-4.62919E+01-5.78903E-01
 -1       377 1.90000E+01-4.62895E+01-5.93648E-01
 -1       378 1.90000E+01-4.62895E+01-6.19378E-01
 -1       379 1.71725E+01-3.85544E+01-4.94695E-01
 -1       380 1.42940E+01-4.91089E+01-5.69049E-01
 -1       381 1.39856E+01-4.35283E+01-3.56384E-01
 -1       382 1.35838E+01-5.21763E+01-6.41045E-01
 -1       383 1.32349E+01-3.85016E+01-2.84609E-01
 -1       384 1.50353E+01-4.62000E+01-4.34478E-01
 -1       385 1.14138E+01-3.39675E+01-6.87648E-01
 -1       386 1.19485E+01-3.86611E+01-7.18962E-01
 -1       387 1.22894E+01-4.23204E+01-7.36877E-01
 -1       388 1.43649E+01-4.91634E+01-5.97025E-01
 -1       389 1.43400E+01-5.51297E+01-5.54764E-01
 -1       390 1.51224E+01-4.62139E+01-6.79992E-01
 -1       391-2.01265E+00-9.22775E+01-8.12646E-01
 -1       392-1.05442E+00-9.19506E+01-8.55025E-01
 -1       393 6.22983E-01 1.94483E-01-1.68131E-01
 -1       394 6.43808E-01 3.35097E-01-1.24132E-02
 -1       395 1.83040E+01-4.65238E+01-5.65762E-01
 -1       396 1.90000E+01-4.62956E+01-5.97700E-01
 -1       397 1.90000E+01-4.63000E+01-6.19316E-01
 -1       398 1.22694E+01-9.27182E+01-1.31709E+00
 -1       399 1.26643E+00 1.84711E-01 1.48173E-02
 -1       400 1.24365E+01-9.28564E+01-1.20746E+00
 -1       401 1.31551E+01-9.11642E+01-1.03743E+00
 -1       402 1.42000E+01-8.48347E+01-8.48135E-01
 -1       403 1.51874E+01-7.58161E+01-7.04020E-01
 -1       404 1.60516E+01-6.61195E+01-5.97460E-01
 -1       405 1.67785E+01-5.67836E+01-5.03943E-01
 -1       406 1.73042E+01-4.90974E+01-5.49169E-01
 -1       407 1.66834E+01-4.18546E+01-8.00048E-01
 -1       408 1.50574E+01-3.32113E+01-7.32002E-01
 -1       409 1.28324E+01-2.29552E+01-6.34925E-01
 -1       410 9.94874E+00-1.24575E+01-5.22977E-01
 -1       411 6.52875E+00-4.05102E+00-3.90416E-01
 -1       412 3.52756E+00-3.30237E-01-2.79358E-01
 -1       413 1.64016E+00 3.73948E-01-1.45493E-01
 -1       414 1.23395E+01-9.28100E+01-1.30473E+00
 -1       415 1.29204E+01-9.17090E+01-1.18408E+00
 -1       416 1.38329E+01-8.70147E+01-1.03601E+00
 -1       417 1.48592E+01-7.84274E+01-8.97371E-01
 -1       418 1.57653E+01-6.87533E+01-8.00468E-01
 -1       419 1.64915E+01-5.97673E+01-7.47882E-01
 -1       420 1.70069E+01-5.26571E+01-7.11991E-01
 -1       421 1.73747E+01-4.68478E+01-4.93813E-01
 -1       422 1.65236E+01-4.13048E+01-2.73306E-01
 -1       423 1.51097E+01-3.37477E+01-2.33819E-01
 -1       424 1.29204E+01-2.35330E+01-1.78436E-01
 -1       425 9.98350E+00-1.26975E+01-8.43208E-02
 -1       426 6.54732E+00-4.13059E+00 2.82364E-02
 -1       427 3.63251E+00-4.09049E-01 1.07822E-01
 -1       428 1.68798E+00 3.42019E-01 1.20911E-01
 -1       429-3.08623E-01-1.00572E-01-5.05927E-04
 -1       430 5.07596E-01 8.69428E-02-4.22919E-02
 -1       431-1.89952E-02 5.58607E-02 4.41610E-02
 -1       432 2.94649E-03 8.55646E-03 5.43236E-03
 -1       433 4.94619E-05-1.32573E-04 3.00859E-04
 -1       434-1.25099E-03-1.01880E-02-7.42524E-04
 -1       435-4.00537E-03-3.39992E-02 5.12876E-04
 -1       436-2.06244E-01-1.03357E-01 3.65802E-02
 -1       437 4.26400E-01 1.00492E-01 8.24194E-02
 -1       438-2.59616E-02 3.55469E-02 1.27941E-02
 -1       439 2.20955E-03 5.63321E-03 3.73957E-03
 -1       440 1.08550E-04-5.28673E-04-1.48353E-04
 -1       441-5.82018E-04-7.69949E-03-2.49247E-03
 -1       442 2.70043E-04-3.49106E-02-2.49654E-03
 -1       443-1.90916E-01-9.14951E-02-3.48613E-02
 -1       444-1.09150E+00-9.11661E+01-4.53252E-01
 -1       445-4.12050E-01-4.83246E-01 4.46622E-02
 -1       446-9.89684E-01-3.13946E+00 5.11883E-02
 -1       447-1.54107E+00-9.82920E+00 5.80749E-03
 -1       448-1.90849E+00-2.45583E+01-7.47247E-02
 -1       449-2.08750E+00-4.62226E+01-2.13076E-01
 -1       450-2.08478E+00-6.57826E+01-3.46052E-01
 -1       451-1.76755E+00-8.02572E+01-4.39409E-01
 -1       452-1.20498E+00-8.88230E+01-4.95413E-01
 -1       453-4.20447E-01-5.34576E-01-3.47316E-02
 -1       454-9.69910E-01-2.94874E+00-4.00184E-02
 -1       455-1.46560E+00-8.42172E+00-4.35208E-02
 -1       456-1.83482E+00-1.92210E+01-6.85356E-02
 -1       457-2.05988E+00-3.73227E+01-1.58728E-01
 -1       458-2.13721E+00-5.74939E+01-2.77680E-01
 -1       459-2.01447E+00-7.27713E+01-3.49680E-01
 -1       460-1.65377E+00-8.30129E+01-3.80464E-01
 -1       461-1.18380E+00-8.91899E+01-3.88573E-01
 -1       462-2.23155E+00-9.12426E+01-5.31519E-01
 -1       463-3.86860E+00-9.17297E+01-5.97663E-01
 -1       464-4.31839E+00-9.23071E+01-6.85228E-01
 -1       465-8.16376E-01-9.29263E+01-8.55366E-01
 -1       466 5.88908E+00-9.31634E+01-1.07113E+00
 -1       467 9.98976E+00-9.30107E+01-1.18165E+00
 -1       468 1.18663E+01-9.27816E+01-1.25273E+00
 -1       469-2.38417E+00-9.12279E+01-4.15162E-01
 -1       470-4.08560E+00-9.17570E+01-5.07359E-01
 -1       471-4.18982E+00-9.23583E+01-6.29714E-01
 -1       472-8.08264E-01-9.28755E+01-8.21805E-01
 -1       473 5.19174E+00-9.31139E+01-1.04987E+00
 -1       474 9.56794E+00-9.29862E+01-1.20641E+00
 -1       475 1.16969E+01-9.27510E+01-1.31269E+00
 -1       476 1.48742E-02 9.18827E-03-1.23142E-04
 -1       477 1.71967E+00-9.32618E+01-4.35047E-01
 -1       478 2.06717E-01-4.02770E-02-3.78706E-02
 -1       479 8.31644E-01-1.22134E+00-5.80222E-02
 -1       480 1.55512E+00-6.00367E+00-4.01473E-02
 -1       481 2.14047E+00-1.68682E+01-5.83191E-02
 -1       482 2.52840E+00-3.45515E+01-1.29136E-01
 -1       483 2.75773E+00-5.47540E+01-2.18752E-01
 -1       484 2.74549E+00-7.15173E+01-2.80683E-01
 -1       485 2.45815E+00-8.24690E+01-3.20395E-01
 -1       486 2.05076E+00-8.88756E+01-3.63862E-01
 -1       487 1.73145E+00-9.21696E+01-4.07994E-01
 -1       488 2.55817E-01-8.64398E-02 3.89185E-02
 -1       489 1.01084E+00-1.94734E+00 6.36802E-02
 -1       490 1.76422E+00-8.90713E+00 2.97272E-02
 -1       491 2.29008E+00-2.29347E+01-4.05516E-02
 -1       492 2.62568E+00-4.38401E+01-1.48584E-01
 -1       493 2.75987E+00-6.46963E+01-2.54684E-01
 -1       494 2.56947E+00-7.90729E+01-3.40069E-01
 -1       495 2.12042E+00-8.76513E+01-4.01782E-01
 -1       496 1.72584E+00-9.18574E+01-4.28255E-01
 -1       497 1.23950E+01-9.24312E+01-1.38014E+00
 -1       498 1.20943E+01-9.27269E+01-1.25379E+00
 -1       499 1.14936E+01-9.10604E+01-1.08993E+00
 -1       500 1.06087E+01-8.54354E+01-9.09343E-01
 -1       501 9.67464E+00-7.64786E+01-7.58575E-01
 -1       502 8.82466E+00-6.64916E+01-6.48265E-01
 -1       503 8.11023E+00-5.67356E+01-5.77519E-01
 -1       504 7.57275E+00-4.80412E+01-5.25383E-01
 -1       505 7.10046E+00-3.84361E+01-4.67382E-01
 -1       506 6.55123E+00-2.77055E+01-3.99587E-01
 -1       507 5.73130E+00-1.66361E+01-2.99634E-01
 -1       508 4.46148E+00-6.54850E+00-1.72008E-01
 -1       509 3.05555E+00-1.02561E+00-4.69833E-02
 -1       510 1.89689E+00 5.41022E-01 6.02422E-02
 -1       511 7.13314E-01 3.57150E-01 1.37646E-01
 -1       512 3.41339E-02 1.34630E-02 1.26510E-02
 -1       513 4.38217E-03-7.18536E-03 7.34998E-03
 -1       514-7.00659E-04 1.42799E-03 1.30823E-03
 -1       515-2.38203E-05 1.95042E-04 2.21599E-04
 -1       516-2.38967E-05-2.28618E-04-6.33071E-05
 -1       517 5.57927E-05-1.50666E-03-4.04172E-04
 -1       518-2.90772E-03-7.72434E-03-4.56389E-03
 -1       519-2.21861E-06 6.03223E-03-7.01758E-03
 -1       520-7.25111E-02-9.32203E+01-4.61914E-01
 -1       521-3.18662E+00-9.27571E+01-5.78990E-01
 -1       522-4.44534E+00-9.21564E+01-6.80467E-01
 -1       523-2.52271E+00-9.16418E+01-8.24238E-01
 -1       524 2.53778E+00-9.13959E+01-1.01204E+00
 -1       525 8.00877E+00-9.14994E+01-1.18705E+00
 -1       526 1.11990E+01-9.18190E+01-1.29434E+00
 -1       527 1.22182E+01-9.20922E+01-1.39884E+00
 -1       528 1.24626E+01-9.24787E+01-1.41018E+00
 -1       529 1.21234E+01-9.27259E+01-1.30416E+00
 -1       530 1.13158E+01-8.98327E+01-1.13597E+00
 -1       531 1.02884E+01-8.20257E+01-9.70478E-01
 -1       532 9.37391E+00-7.24504E+01-8.61944E-01
 -1       533 8.51024E+00-6.16390E+01-7.74146E-01
 -1       534 7.78322E+00-5.07615E+01-6.93887E-01
 -1       535 7.26662E+00-4.06971E+01-6.25905E-01
 -1       536 6.71508E+00-2.96610E+01-5.42473E-01
 -1       537 5.92640E+00-1.82409E+01-4.60872E-01
 -1       538 4.71541E+00-7.78586E+00-3.60137E-01
 -1       539 3.19122E+00-1.27151E+00-2.48458E-01
 -1       540 1.87216E+00 5.59874E-01-1.70562E-01
 -1       541 7.18808E-01 3.55964E-01-1.45111E-01
 -1       542 2.25358E-02 4.10930E-03-9.31463E-03
 -1       543 8.74384E-03-7.67134E-03-8.37982E-03
 -1       544-2.99694E-04 1.91913E-03-8.23878E-04
 -1       545-1.53868E-05 3.09996E-04-1.30536E-04
 -1       546-4.15881E-05-2.79367E-04 1.18236E-05
 -1       547 1.09623E-04-1.56243E-03 9.89650E-04
 -1       548-3.03489E-03-8.51272E-03 5.49483E-03
 -1       549-1.05594E-03 5.76604E-03 5.33907E-03
 -1       550 1.34734E-01-9.32808E+01-4.49001E-01
 -1       551-2.63569E+00-9.29268E+01-5.01617E-01
 -1       552-4.13944E+00-9.24699E+01-5.67270E-01
 -1       553-4.18393E+00-9.20038E+01-6.75910E-01
 -1       554-3.86499E-01-9.15583E+01-8.90353E-01
 -1       555 6.13533E+00-9.14792E+01-1.14587E+00
 -1       556 9.80821E+00-9.16832E+01-1.28141E+00
 -1       557 1.16892E+01-9.19544E+01-1.35207E+00
 -1       558 1.23220E+01-9.21516E+01-1.40959E+00
 -1       559 2.76588E-02 1.94045E-02 2.78422E-03
 -1       560 1.24540E+01-9.21290E+01-1.42176E+00
 -1       561 1.90000E+01-4.63102E+01-6.58946E-01
 -1       562 1.90000E+01-4.63071E+01-6.58946E-01
 -1       563 1.90000E+01-4.63001E+01-6.58946E-01
 -1       564 1.90000E+01-4.62928E+01-6.58946E-01
 -1       565 1.90000E+01-4.62895E+01-6.58946E-01
 -1       566 1.90000E+01-4.62928E+01-6.58946E-01
 -1       567 1.90000E+01-4.63001E+01-6.58946E-01
 -1       568 1.90000E+01-4.63071E+01-6.58946E-01
 -1       569 1.90000E+01-4.64283E+01-5.96380E-01
 -1       570 1.90000E+01-4.62974E+01-5.70040E-01
 -1       571 1.90000E+01-4.62918E+01-5.80087E-01
 -1       572 1.90000E+01-4.62895E+01-5.96426E-01
 -1       573 1.90000E+01-4.62895E+01-6.17451E-01
 -1       574 1.90000E+01-4.62895E+01-6.35745E-01
 -1       575 1.90000E+01-4.62895E+01-6.47889E-01
 -1       576 1.90000E+01-4.62895E+01-6.55743E-01
 -1       577 1.90000E+01-4.64277E+01-5.26273E-01
 -1       578 1.90000E+01-4.63085E+01-5.76373E-01
 -1       579 1.90000E+01-4.63087E+01-5.81433E-01
 -1       580 1.90000E+01-4.63100E+01-5.97148E-01
 -1       581 1.90000E+01-4.63101E+01-6.17554E-01
 -1       582 1.90000E+01-4.63101E+01-6.35381E-01
 -1       583 1.90000E+01-4.63102E+01-6.47731E-01
 -1       584 1.90000E+01-4.63102E+01-6.55690E-01
 -1       585 1.90000E+01-4.66608E+01-6.07255E-01
 -1       586 1.90000E+01-4.66374E+01-5.66243E-01
 -1       587 1.90000E+01-4.67399E+01-5.07411E-01
 -1       588 1.90438E+01-4.62754E+01-5.02484E-01
 -1       589 1.90029E+01-4.63136E+01-5.83948E-01
 -1       590 1.90001E+01-4.63085E+01-5.81427E-01
 -1       591 1.90000E+01-4.63100E+01-5.97143E-01
 -1       592 1.90000E+01-4.63101E+01-6.17546E-01
 -1       593 1.90000E+01-4.63101E+01-6.35380E-01
 -1       594 1.90000E+01-4.63102E+01-6.47731E-01
 -1       595 1.90000E+01-4.63102E+01-6.55690E-01
 -1       596 1.90753E+01-4.63554E+01-5.38511E-01
 -1       597 1.89952E+01-4.62941E+01-5.73269E-01
 -1       598 1.90001E+01-4.62912E+01-5.79884E-01
 -1       599 1.90000E+01-4.62895E+01-5.96403E-01
 -1       600 1.90000E+01-4.62895E+01-6.17444E-01
 -1       601 1.90000E+01-4.62895E+01-6.35745E-01
 -1       602 1.90000E+01-4.62895E+01-6.47889E-01
 -1       603 1.90000E+01-4.62895E+01-6.55743E-01
 -1       604 1.86830E+01-4.58149E+01-4.71609E-01
 -1       605 1.88294E+01-4.58226E+01-5.59049E-01
 -1       606 1.87044E+01-4.58302E+01-6.59530E-01
 -1       607 1.88034E+01-4.62895E+01-4.29530E-01
 -1       608 1.23989E+01-9.27715E+01-1.29967E+00
 -1       609 1.31613E+01-9.14257E+01-1.18661E+00
 -1       610 1.43164E+01-8.63357E+01-1.04658E+00
 -1       611 1.55735E+01-7.76111E+01-9.20515E-01
 -1       612 1.65849E+01-6.88573E+01-8.40752E-01
 -1       613 1.73868E+01-6.09475E+01-7.98180E-01
 -1       614 1.79819E+01-5.43001E+01-7.87763E-01
 -1       615 1.84739E+01-4.90958E+01-6.75659E-01
 -1       616 1.85570E+01-4.91657E+01-5.20130E-01
 -1       617 1.80475E+01-5.44042E+01-4.15970E-01
 -1       618 1.74650E+01-6.09446E+01-4.90972E-01
 -1       619 1.66428E+01-6.90940E+01-5.78165E-01
 -1       620 1.56027E+01-7.80605E+01-6.93237E-01
 -1       621 1.43441E+01-8.66975E+01-8.57897E-01
 -1       622 1.32217E+01-9.15770E+01-1.03588E+00
 -1       623 1.24935E+01-9.28415E+01-1.18010E+00
 -1       624 1.22169E+01-9.27670E+01-1.30256E+00
 -1       625 1.87968E+01-4.62788E+01-6.99285E-01
 -1       626 1.81159E+01-4.36734E+01-2.50157E-01
 -1       627 1.70823E+01-3.84376E+01-1.44958E-01
 -1       628 1.53078E+01-3.00681E+01-1.23104E-01
 -1       629 1.26934E+01-1.96555E+01-6.26399E-02
 -1       630 9.03231E+00-8.64364E+00 4.22139E-02
 -1       631 5.10550E+00-1.66686E+00 1.49711E-01
 -1       632 2.15873E+00 2.45263E-01 1.75502E-01
 -1       633 1.18109E+00 2.46496E-01 1.67808E-02
 -1       634 1.97571E+00 3.08441E-01-2.06835E-01
 -1       635 4.16484E+00-7.60363E-01-3.61220E-01
 -1       636 7.21497E+00-4.72007E+00-4.71042E-01
 -1       637 1.04445E+01-1.22449E+01-5.95982E-01
 -1       638 1.29731E+01-2.04446E+01-6.92857E-01
 -1       639 1.48833E+01-2.79669E+01-7.65513E-01
 -1       640 1.62851E+01-3.41995E+01-8.38530E-01
 -1       641 1.73614E+01-3.94585E+01-9.10313E-01
 -1       642 1.81833E+01-4.37987E+01-8.37121E-01
 -1       643-2.57683E+00-9.10566E+01-4.14199E-01
 -1       644-4.15812E+00-9.17207E+01-5.00824E-01
 -1       645-4.12834E+00-9.24373E+01-6.19580E-01
 -1       646-7.56967E-01-9.30431E+01-8.11104E-01
 -1       647 5.10201E+00-9.33205E+01-1.04072E+00
 -1       648 9.41679E+00-9.31671E+01-1.19655E+00
 -1       649 1.15665E+01-9.28719E+01-1.29900E+00
 -1       650 1.17162E+01-9.29257E+01-1.23462E+00
 -1       651 9.73456E+00-9.32114E+01-1.16592E+00
 -1       652 5.77587E+00-9.33862E+01-1.05935E+00
 -1       653-6.73846E-01-9.31166E+01-8.61689E-01
 -1       654-4.23713E+00-9.24045E+01-6.99209E-01
 -1       655-4.01628E+00-9.17335E+01-6.09583E-01
 -1       656-2.52791E+00-9.11095E+01-5.39751E-01
 -1       657-1.40163E+00-9.08464E+01-4.52974E-01
 -1       658-6.56402E-01-8.02594E-01-6.66659E-02
 -1       659-1.43597E+00-4.07006E+00-6.93254E-02
 -1       660-2.08434E+00-1.17685E+01-6.51055E-02
 -1       661-2.49934E+00-2.66463E+01-1.10336E-01
 -1       662-2.72327E+00-4.79229E+01-2.35865E-01
 -1       663-2.70592E+00-6.76713E+01-3.42945E-01
 -1       664-2.32344E+00-8.06087E+01-3.79942E-01
 -1       665-1.67618E+00-8.83208E+01-3.86027E-01
 -1       666-1.69484E+00-8.80261E+01-5.00601E-01
 -1       667-2.36637E+00-7.90339E+01-4.42650E-01
 -1       668-2.69929E+00-6.50462E+01-3.43526E-01
 -1       669-2.68099E+00-4.62526E+01-2.08056E-01
 -1       670-2.45481E+00-2.54788E+01-6.92205E-02
 -1       671-2.03274E+00-1.09661E+01 1.64264E-02
 -1       672-1.38131E+00-3.79467E+00 7.43029E-02
 -1       673-6.24938E-01-6.91585E-01 7.70198E-02
 -1       674-3.28775E-01-1.43114E-01 2.43516E-03
 -1       675 3.38613E-01 1.33809E-01 6.61706E-02
 -1       676-3.72007E-02 3.95223E-02 1.64555E-03
 -1       677 1.79229E-03 5.23112E-03 3.23256E-03
 -1       678 1.64837E-04-5.63397E-04-1.81407E-04
 -1       679-4.76951E-04-7.56667E-03-2.52822E-03
 -1       680 9.92648E-03-3.03096E-02 1.99311E-03
 -1       681-1.62542E-01-8.38746E-02-3.14164E-02
 -1       682-1.53250E-01-8.24630E-02 3.31528E-02
 -1       683 1.79007E-02-2.65134E-02-8.99739E-03
 -1       684-1.06619E-03-8.97372E-03-1.30154E-03
 -1       685 9.68000E-05 2.92758E-04 5.88443E-04
 -1       686 2.95760E-04 9.68712E-03 8.36726E-03
 -1       687-4.65923E-02 6.24930E-02 6.55969E-02
 -1       688 3.72282E-01 1.39000E-01-5.20754E-03
 -1       689 0.00000E+00 0.00000E+00 0.00000E+00
 -1       690 2.01995E+00-9.35538E+01-4.32461E-01
 -1       691 2.56278E-01-4.33228E-02-6.33254E-02
 -1       692 1.14243E+00-1.62110E+00-8.56462E-02
 -1       693 2.09361E+00-7.68553E+00-5.47389E-02
 -1       694 2.79842E+00-2.15330E+01-7.58305E-02
 -1       695 3.23648E+00-4.29862E+01-1.59493E-01
 -1       696 3.40761E+00-6.37472E+01-2.36524E-01
 -1       697 3.17956E+00-7.85083E+01-2.73473E-01
 -1       698 2.62567E+00-8.73710E+01-3.01603E-01
 -1       699 2.06602E+00-9.19750E+01-3.64575E-01
 -1       700 2.17392E-01-3.87568E-02 5.14511E-02
 -1       701 9.97957E-01-1.16954E+00 9.44919E-02
 -1       702 1.92012E+00-6.13457E+00 6.39565E-02
 -1       703 2.60794E+00-1.66381E+01-1.33375E-03
 -1       704 3.05155E+00-3.35810E+01-9.35935E-02
 -1       705 3.33138E+00-5.40527E+01-1.98513E-01
 -1       706 3.32730E+00-7.12113E+01-2.95936E-01
 -1       707 2.96908E+00-8.24237E+01-3.84113E-01
 -1       708 2.39345E+00-8.89905E+01-4.41096E-01
 -1       709 1.99541E+00-9.23659E+01-4.71836E-01
 -1       710 1.24570E+01-9.23501E+01-1.37536E+00
 -1       711 1.21550E+01-9.27665E+01-1.25871E+00
 -1       712 1.15104E+01-9.17734E+01-1.10113E+00
 -1       713 1.05125E+01-8.74929E+01-9.22500E-01
 -1       714 9.36394E+00-7.94998E+01-7.60212E-01
 -1       715 8.31645E+00-7.02765E+01-6.41608E-01
 -1       716 7.39891E+00-6.08522E+01-5.59699E-01
 -1       717 6.64979E+00-5.20352E+01-5.19704E-01
 -1       718 6.15998E+00-4.36238E+01-4.94614E-01
 -1       719 5.84541E+00-3.38291E+01-4.49031E-01
 -1       720 5.43713E+00-2.33467E+01-3.70776E-01
 -1       721 4.76594E+00-1.30770E+01-2.64323E-01
 -1       722 3.71323E+00-4.47440E+00-1.36045E-01
 -1       723 2.59291E+00-3.51133E-01-1.61143E-02
 -1       724 1.64603E+00 6.45151E-01 1.00441E-01
 -1       725 5.75845E-01 3.15307E-01 1.43190E-01
 -1       726 1.77290E-01-9.35338E+01-5.10763E-01
 -1       727-3.03609E+00-9.29679E+01-6.19723E-01
 -1       728-4.45498E+00-9.21957E+01-7.08727E-01
 -1       729-2.69692E+00-9.15255E+01-8.33654E-01
 -1       730 2.29907E+00-9.11859E+01-1.01309E+00
 -1       731 7.86185E+00-9.12863E+01-1.18255E+00
 -1       732 1.11419E+01-9.16756E+01-1.27657E+00
 -1       733 1.22365E+01-9.20342E+01-1.38959E+00
 -1       734 0.00000E+00 0.00000E+00 0.00000E+00
 -1       735 0.00000E+00 0.00000E+00 0.00000E+00
 -1       736 0.00000E+00 0.00000E+00 0.00000E+00
 -1       737 0.00000E+00 0.00000E+00 0.00000E+00
 -1       738 0.00000E+00 0.00000E+00 0.00000E+00
 -1       739 0.00000E+00 0.00000E+00 0.00000E+00
 -1       740 0.00000E+00 0.00000E+00 0.00000E+00
 -1       741 0.00000E+00 0.00000E+00 0.00000E+00
 -1       742 1.25203E+01-9.24820E+01-1.44379E+00
 -1       743 1.20809E+01-9.27402E+01-1.34481E+00
 -1       744 1.10851E+01-8.99571E+01-1.18645E+00
 -1       745 9.82580E+00-8.24617E+01-1.02683E+00
 -1       746 8.69843E+00-7.31833E+01-9.21414E-01
 -1       747 7.69085E+00-6.33223E+01-8.39037E-01
 -1       748 6.86958E+00-5.39996E+01-7.60547E-01
 -1       749 6.30608E+00-4.54427E+01-6.81717E-01
 -1       750 6.00332E+00-3.68260E+01-5.98461E-01
 -1       751 5.66935E+00-2.71692E+01-5.23625E-01
 -1       752 5.08073E+00-1.62704E+01-4.46089E-01
 -1       753 4.07686E+00-6.37704E+00-3.49337E-01
 -1       754 2.82444E+00-7.84641E-01-2.45210E-01
 -1       755 1.72067E+00 6.35490E-01-1.86452E-01
 -1       756 6.36042E-01 3.39878E-01-1.50643E-01
 -1       757 3.34983E-01-9.36057E+01-4.06545E-01
 -1       758-2.58254E+00-9.31558E+01-4.54052E-01
 -1       759-4.12580E+00-9.25615E+01-5.32654E-01
 -1       760-4.20924E+00-9.19729E+01-6.56788E-01
 -1       761-5.83528E-01-9.14029E+01-8.79785E-01
 -1       762 5.86665E+00-9.12647E+01-1.14494E+00
 -1       763 9.69225E+00-9.15023E+01-1.29879E+00
 -1       764 1.16434E+01-9.18407E+01-1.38353E+00
 -1       765 1.23496E+01-9.21095E+01-1.43872E+00
 -1       766 0.00000E+00 0.00000E+00 0.00000E+00
 -1       767 0.00000E+00 0.00000E+00 0.00000E+00
 -1       768 0.00000E+00 0.00000E+00 0.00000E+00
 -1       769 0.00000E+00 0.00000E+00 0.00000E+00
 -1       770 0.00000E+00 0.00000E+00 0.00000E+00
 -1       771 0.00000E+00 0.00000E+00 0.00000E+00
 -1       772 0.00000E+00 0.00000E+00 0.00000E+00
 -1       773 0.00000E+00 0.00000E+00 0.00000E+00
 -1       774 0.00000E+00 0.00000E+00 0.00000E+00
 -1       775 1.25034E+01-9.20773E+01-1.43227E+00
 -1       776 1.23937E+01-9.28382E+01-1.26062E+00
 -1       777 1.68063E+00 3.76552E-01-7.99401E-03
 -1       778 1.26266E+01-9.25751E+01-1.19755E+00
 -1       779 1.50540E+01-7.68604E+01-7.99469E-01
 -1       780 1.55048E+01-7.20886E+01-7.45235E-01
 -1       781 1.59208E+01-6.73459E+01-7.00106E-01
 -1       782 1.63423E+01-6.21770E+01-6.58073E-01
 -1       783 1.66548E+01-5.82485E+01-6.32306E-01
 -1       784 1.70159E+01-5.40469E+01-6.02164E-01
 -1       785 1.51174E+01-3.36237E+01-4.85160E-01
 -1       786 1.41667E+01-2.90131E+01-4.48972E-01
 -1       787 1.28832E+01-2.32860E+01-4.06595E-01
 -1       788 1.16274E+01-1.82882E+01-3.63442E-01
 -1       789 2.43896E+00 2.26112E-01-4.66803E-02
 -1       790 1.45783E+01-8.13658E+01-8.61947E-01
 -1       791 1.73093E+01-5.09451E+01-5.86531E-01
 -1       792 1.63542E+01-3.99829E+01-3.90028E-01
 -1       793 1.69442E+01-4.27777E+01-4.25668E-01
 -1       794 3.61368E+00-4.15739E-01-9.00929E-02
 -1       795 4.77272E+00-1.49904E+00-1.24507E-01
 -1       796 1.40348E+01-8.58453E+01-9.41797E-01
 -1       797 1.76352E+01-4.75350E+01-5.73134E-01
 -1       798 1.71215E+01-4.35263E+01-6.55643E-01
 -1       799 1.63428E+01-3.97928E+01-6.79377E-01
 -1       800 1.29874E+01-9.16563E+01-1.12267E+00
 -1       801 1.35013E+01-8.92979E+01-1.02935E+00
 -1       802 1.74690E+01-4.54239E+01-4.91094E-01
 -1       803 6.55687E+00-4.15055E+00-1.80124E-01
 -1       804 9.94636E+00-1.25378E+01-3.02183E-01
 -1       805 8.35398E+00-8.05347E+00-2.45658E-01
 -1       806 1.60622E+01-3.84360E+01-5.23042E-01
 -1       807 6.00351E-01 9.35458E-02 2.53526E-02
 -1       808-2.40837E-01-1.21945E-01 3.46570E-03
 -1       809-1.06401E-01-6.44948E-02-1.21245E-03
 -1       810-1.66553E-02-3.51910E-02-5.25856E-03
 -1       811 1.53362E-01 9.64767E-02 2.67484E-02
 -1       812 4.45151E-03-2.06641E-02-6.57558E-04
 -1       813 2.12160E-03 5.12405E-02 3.64512E-02
 -1       814 8.06115E-04 2.19140E-02 9.83331E-03
 -1       815-1.79135E-03-1.01495E-02-2.16997E-03
 -1       816-1.14424E-03-4.33152E-03-9.44662E-04
 -1       817 4.85283E-03 7.19931E-03 5.10273E-03
 -1       818 4.04259E-04 3.00485E-03 1.90053E-03
 -1       819 2.32803E-04 1.41597E-04 2.24175E-04
 -1       820-4.16191E-01-4.97139E-01 7.92561E-03
 -1       821-1.18853E+00-8.92228E+01-4.44167E-01
 -1       822-1.41345E+00-8.64648E+01-4.28655E-01
 -1       823-6.46007E-01-1.34562E+00 7.80653E-03
 -1       824-9.47200E-01-2.92853E+00 7.32531E-03
 -1       825-1.22798E+00-5.28366E+00-1.03408E-03
 -1       826-1.91443E+00-7.63838E+01-3.87978E-01
 -1       827-1.66419E+00-8.25638E+01-4.14227E-01
 -1       828-1.47902E+00-8.79543E+00-1.48397E-02
 -1       829-2.04509E+00-7.02322E+01-3.56551E-01
 -1       830-1.69175E+00-1.35109E+01-3.26351E-02
 -1       831-2.11834E+00-6.21076E+01-3.12650E-01
 -1       832-1.84974E+00-2.05089E+01-6.16053E-02
 -1       833-2.12231E+00-5.30790E+01-2.54204E-01
 -1       834-1.99513E+00-3.08844E+01-1.15261E-01
 -1       835-2.07764E+00-4.18550E+01-1.85697E-01
 -1       836-2.26511E+00-9.12484E+01-4.73057E-01
 -1       837 1.18428E+01-9.27647E+01-1.28552E+00
 -1       838 1.10842E+01-9.28676E+01-1.24391E+00
 -1       839-3.20352E+00-9.14561E+01-5.07898E-01
 -1       840-3.96458E+00-9.17292E+01-5.48861E-01
 -1       841-4.38191E+00-9.19925E+01-5.94304E-01
 -1       842 9.82591E+00-9.29909E+01-1.19784E+00
 -1       843 8.26559E+00-9.30785E+01-1.14615E+00
 -1       844-4.27831E+00-9.23186E+01-6.52209E-01
 -1       845-3.39953E+00-9.25944E+01-7.16684E-01
 -1       846 5.58363E+00-9.31341E+01-1.06140E+00
 -1       847 2.71581E+00-9.30950E+01-9.63962E-01
 -1       848-4.90889E-01-9.29215E+01-8.51032E-01
 -1       849 2.06900E-01-5.52021E-02-2.28079E-03
 -1       850 1.75936E+00-9.20942E+01-4.24538E-01
 -1       851 1.87226E+00-9.05573E+01-4.05515E-01
 -1       852 8.83677E-01-1.44780E+00 3.26985E-03
 -1       853 5.09138E-01-4.18069E-01-3.85745E-03
 -1       854 2.29558E+00-8.53781E+01-3.61148E-01
 -1       855 2.48617E+00-8.13357E+01-3.32018E-01
 -1       856 2.06786E+00-8.84549E+01-3.80775E-01
 -1       857 1.26868E+00-3.58605E+00 1.27722E-02
 -1       858 2.66793E+00-7.57457E+01-3.14134E-01
 -1       859 1.62200E+00-6.91458E+00-4.98401E-04
 -1       860 2.75173E+00-6.89769E+01-2.68223E-01
 -1       861 1.94385E+00-1.20355E+01-9.75071E-03
 -1       862 2.77163E+00-6.03127E+01-2.43311E-01
 -1       863 2.20751E+00-1.93416E+01-4.69062E-02
 -1       864 2.57274E+00-3.85150E+01-1.38200E-01
 -1       865 2.41108E+00-2.83228E+01-7.85405E-02
 -1       866 2.70803E+00-5.04873E+01-1.85964E-01
 -1       867 1.22829E+01-9.27007E+01-1.36694E+00
 -1       868 1.22774E+01-9.23872E+01-1.40474E+00
 -1       869 1.22753E+01-9.24934E+01-1.23489E+00
 -1       870 1.22672E+01-9.27936E+01-1.30234E+00
 -1       871 1.23789E+01-7.24270E+01-7.77225E-01
 -1       872 1.23610E+01-7.73403E+01-8.35708E-01
 -1       873 1.23997E+01-6.23169E+01-6.88857E-01
 -1       874 1.23894E+01-6.77304E+01-7.31416E-01
 -1       875 1.23822E+01-5.40249E+01-6.37717E-01
 -1       876 1.24007E+01-5.83959E+01-6.64320E-01
 -1       877 9.95733E+00-2.57845E+01-2.95490E-01
 -1       878 1.06989E+01-3.12840E+01-3.33815E-01
 -1       879 8.13074E+00-1.48542E+01-1.97052E-01
 -1       880 9.12835E+00-2.04370E+01-2.51760E-01
 -1       881 3.40685E+00-5.59245E-01 4.01928E-02
 -1       882 4.39584E+00-2.09336E+00-5.14924E-03
 -1       883 1.80565E+00 4.74341E-01 1.07501E-01
 -1       884 2.54336E+00 2.04974E-01 7.75304E-02
 -1       885 6.97852E-01 2.29300E-01 1.44130E-01
 -1       886 2.00035E-02 2.47995E-03 4.20598E-02
 -1       887 1.54940E-01-1.95841E-02 9.12621E-02
 -1       888-7.91611E-02-5.38648E-02-4.64618E-02
 -1       889-2.12799E-02-3.93210E-02-1.76282E-02
 -1       890-1.06701E-02 1.79526E-02-1.15311E-02
 -1       891-1.18909E-01-3.31196E-02-4.48261E-02
 -1       892 6.81845E-02-2.52326E-01 5.27854E-03
 -1       893 3.97750E-01-8.87581E+01-3.71283E-01
 -1       894 3.96900E-01-8.56687E+01-3.62731E-01
 -1       895 3.39381E-01-9.21608E+01-3.50736E-01
 -1       896 3.70587E-01-9.06908E+01-3.65897E-01
 -1       897-1.36554E+00-9.21172E+01-3.82790E-01
 -1       898 1.15534E+01-9.23190E+01-1.33127E+00
 -1       899 1.05143E+01-9.23090E+01-1.26898E+00
 -1       900 1.20864E+01-9.23600E+01-1.38421E+00
 -1       901-2.63008E+00-9.20805E+01-4.42142E-01
 -1       902-3.75141E+00-9.21011E+01-5.15942E-01
 -1       903-4.31753E+00-9.21209E+01-5.65324E-01
 -1       904 9.06709E+00-9.22949E+01-1.21144E+00
 -1       905 1.02000E-01-8.36106E-01 1.05578E-02
 -1       906 9.36692E-02-2.65429E+00 1.52417E-02
 -1       907 1.01129E-01-4.63830E+00 1.03430E-02
 -1       908 3.74505E-01-8.16838E+01-3.44371E-01
 -1       909-1.29568E-02 1.39015E-02 6.61373E-03
 -1       910 1.98891E-03-1.76884E-02-3.99860E-03
 -1       911 1.23496E+01-8.17584E+01-9.00529E-01
 -1       912 1.23281E+01-5.09148E+01-5.91172E-01
 -1       913 1.43058E+01-4.26305E+01-3.64561E-01
 -1       914 1.39583E+01-3.98338E+01-3.22454E-01
 -1       915 1.12621E+01-3.59311E+01-3.57858E-01
 -1       916 6.98306E+00-9.72066E+00-1.37602E-01
 -1       917 1.22895E+01-9.14836E+01-1.15752E+00
 -1       918 1.23244E+01-8.62016E+01-9.84856E-01
 -1       919 1.23104E+01-8.95388E+01-1.07626E+00
 -1       920 9.22351E+00-3.71994E+01-4.15820E-01
 -1       921 9.58222E+00-4.24688E+01-4.51753E-01
 -1       922 5.67355E+00-5.14775E+00-7.01190E-02
 -1       923-9.73492E-05-6.97102E-03-2.15723E-03
 -1       924 1.58936E-03 7.09602E-03 5.10259E-03
 -1       925-7.70063E-04-2.82876E-03-9.65996E-04
 -1       926 3.62306E-01-7.60983E+01-3.20904E-01
 -1       927-4.40394E+00-9.21415E+01-6.38035E-01
 -1       928 6.86686E+00-9.22700E+01-1.12689E+00
 -1       929-3.67974E+00-9.21660E+01-7.19836E-01
 -1       930 3.36318E-01-6.99447E+01-2.93192E-01
 -1       931 1.45245E+01-4.53949E+01-4.34740E-01
 -1       932 1.20083E+01-4.38942E+01-4.32758E-01
 -1       933 9.72895E+00-4.52338E+01-4.84521E-01
 -1       934 1.46733E+01-4.81440E+01-5.39791E-01
 -1       935 9.94409E+00-4.94894E+01-5.46227E-01
 -1       936 4.82185E-01 7.83950E-02 1.20678E-01
 -1       937 5.84128E-04 1.98016E-03 1.68511E-03
 -1       938 1.31332E-01-8.01690E+00 1.71432E-03
 -1       939 1.51404E-01-1.33307E+01-1.52563E-02
 -1       940 3.16658E-01-6.12813E+01-2.55527E-01
 -1       941-3.26634E-04-1.17402E-03-4.29862E-04
 -1       942 3.99628E+00-9.22476E+01-1.03766E+00
 -1       943-1.90445E+00-9.21817E+01-8.11436E-01
 -1       944 1.18742E+00 4.07742E-01 1.34420E-01
 -1       945 1.28689E-04 5.86419E-04 5.63058E-04
 -1       946 9.47999E-01-9.22147E+01-9.22149E-01
 -1       947 2.15471E-01-2.93655E+01-8.40949E-02
 -1       948 1.86615E-01-2.03019E+01-4.34087E-02
 -1       949 2.88820E-01-5.22771E+01-2.07359E-01
 -1       950 2.50795E-01-4.02405E+01-1.44877E-01
 -1       951 1.23588E+01-9.24408E+01-1.34108E+00
 -1       952 1.23466E+01-9.27438E+01-1.29440E+00
 -1       953 1.23319E+01-9.28343E+01-1.23756E+00
 -1       954 1.23508E+01-9.23709E+01-1.16606E+00
 -1       955 1.24128E+01-8.33204E+01-8.89634E-01
 -1       956 1.24216E+01-7.85968E+01-8.20793E-01
 -1       957 1.24373E+01-7.41118E+01-7.71762E-01
 -1       958 1.24452E+01-6.91312E+01-7.24748E-01
 -1       959 1.24567E+01-6.41649E+01-6.83950E-01
 -1       960 1.24567E+01-5.81995E+01-6.39839E-01
 -1       961 1.24260E+01-5.39760E+01-6.19677E-01
 -1       962 1.23242E+01-4.92803E+01-6.38781E-01
 -1       963 1.18977E+01-4.19279E+01-6.94450E-01
 -1       964 1.14177E+01-3.69265E+01-6.64586E-01
 -1       965 1.08434E+01-3.20169E+01-6.26823E-01
 -1       966 1.00870E+01-2.63486E+01-5.86299E-01
 -1       967 9.26037E+00-2.09353E+01-5.44107E-01
 -1       968 8.29402E+00-1.54642E+01-4.93821E-01
 -1       969 2.45738E+00 2.77212E-01-2.20449E-01
 -1       970 1.74893E+00 5.10751E-01-1.81054E-01
 -1       971 6.89749E-01 2.05899E-01-1.58974E-01
 -1       972 1.97925E-01-3.17770E-02-8.61015E-02
 -1       973 3.57048E-02 1.14369E-03-2.59139E-02
 -1       974-1.69963E-04-8.05981E-03 1.55642E-03
 -1       975 3.00929E-03-1.93810E-02 7.44391E-03
 -1       976-3.00556E-02-4.20606E-02 2.43859E-02
 -1       977-9.15078E-02-5.73955E-02 4.77342E-02
 -1       978-1.14698E-01-3.18842E-02 3.84721E-02
 -1       979-1.48256E-03 1.36362E-02 9.76193E-03
 -1       980 4.34785E-02-1.69630E-01-4.55215E-03
 -1       981 4.28958E-01-8.89490E+01-4.60974E-01
 -1       982 3.91750E-01-9.10214E+01-5.00341E-01
 -1       983 3.75083E-01-9.22185E+01-5.08622E-01
 -1       984-1.19426E+00-9.21658E+01-5.46707E-01
 -1       985-2.36451E+00-9.21262E+01-5.67067E-01
 -1       986-3.31172E+00-9.21420E+01-5.87826E-01
 -1       987-4.02993E+00-9.21638E+01-6.12601E-01
 -1       988-4.38878E+00-9.21763E+01-6.40395E-01
 -1       989 1.11242E+01-9.23626E+01-1.24808E+00
 -1       990 1.17980E+01-9.23690E+01-1.27651E+00
 -1       991 1.21867E+01-9.24116E+01-1.30891E+00
 -1       992 9.78306E-02-6.35632E-01 1.87249E-03
 -1       993 1.11867E-01-4.11416E+00-2.29473E-03
 -1       994 1.13050E-01-1.97863E+00 9.64910E-04
 -1       995 4.24279E-01-8.62322E+01-4.30730E-01
 -1       996-1.63910E-02 1.86638E-02 6.33390E-03
 -1       997 7.18753E+00-1.03626E+01-4.39773E-01
 -1       998 3.36487E+00-4.93569E-01-2.64941E-01
 -1       999 1.51438E-01-7.57966E+00-1.83611E-02
 -1      1000 1.21765E+01-4.57941E+01-6.66351E-01
 -1      1001 5.89551E+00-5.70446E+00-3.76318E-01
 -1      1002 4.60050E+00-2.43230E+00-3.18039E-01
 -1      1003-5.69760E-04 1.11368E-02 5.89672E-04
 -1      1004 3.88941E-01-8.22688E+01-4.08084E-01
 -1      1005-4.25541E+00-9.21957E+01-6.90314E-01
 -1      1006 1.47951E-01-1.21789E+01-3.55411E-02
 -1      1007-3.49951E+00-9.22134E+01-7.36501E-01
 -1      1008 8.48737E+00-9.23374E+01-1.18536E+00
 -1      1009 9.87285E+00-9.23554E+01-1.21711E+00
 -1      1010-1.18506E-03-3.73345E-03-9.13412E-05
 -1      1011 1.23880E+01-8.73249E+01-9.67041E-01
 -1      1012 1.23760E+01-9.06647E+01-1.06964E+00
 -1      1013 1.19983E+00 4.08251E-01-1.68254E-01
 -1      1014 4.81565E-01 4.83552E-02-1.22395E-01
 -1      1015 3.88023E-01-7.60651E+01-3.73398E-01
 -1      1016 3.63909E-01-6.92791E+01-3.38841E-01
 -1      1017-4.42056E-04-1.43377E-03-1.79120E-05
 -1      1018 3.49956E-01-6.11451E+01-2.94331E-01
 -1      1019 7.14737E-04 3.25168E-03 9.14739E-05
 -1      1020-7.39729E-05 1.08263E-03 4.26056E-04
 -1      1021 3.10381E-01-5.12765E+01-2.38527E-01
 -1      1022 2.13256E-01-1.95096E+01-6.75424E-02
 -1      1023 2.32086E-01-2.98135E+01-1.18411E-01
 -1      1024 2.83199E-01-4.01030E+01-1.76958E-01
 -1      1025 6.19543E+00-9.23193E+01-1.11441E+00
 -1      1026 3.39765E+00-9.22977E+01-1.01191E+00
 -1      1027-2.91102E+00-9.26245E+01-7.67409E-01
 -1      1028-2.78094E+00-9.21595E+01-7.74772E-01
 -1      1029-6.36586E-01-9.22579E+01-8.70177E-01
 -1      1030 2.07177E-01-9.28876E+01-8.94309E-01
 -1      1031 4.73079E-03 1.83326E-03-1.86568E-03
 -1      1032-1.05829E-03-2.00937E-04 4.31169E-04
 -1      1033-8.17373E-04-7.77940E-04-7.19677E-05
 -1      1034-1.18495E-04-1.04681E-04-7.55515E-04
 -1      1035 4.57757E-04-8.26428E-03-1.89994E-03
 -1      1036 2.01968E-04-5.61467E-04 7.25341E-04
 -1      1037 4.51274E-04-1.44112E-03-1.62436E-03
 -1      1038 1.94889E-06-3.65696E-04-1.97940E-04
 -1      1039-2.28457E-03 1.06835E-03-6.73499E-05
 -1      1040 1.62027E-04-1.22385E-04 2.15324E-04
 -1      1041-2.78311E-05-4.47659E-05 1.98426E-05
 -1      1042 5.30411E-05 1.17343E-04-1.33894E-04
 -1      1043-6.02492E-07-1.51613E-05 1.18844E-05
 -1      1044 1.89039E-06-3.85911E-05-2.54994E-05
 -1      1045 8.38514E-06 1.81438E-05-3.50716E-05
 -1      1046 1.89163E-01-9.32081E+01-4.56278E-01
 -1      1047 1.22582E+01-9.21011E+01-1.40290E+00
 -1      1048 1.20021E+01-9.20221E+01-1.37108E+00
 -1      1049-2.67864E+00-9.28830E+01-5.26336E-01
 -1      1050-1.44258E+00-9.30694E+01-4.95963E-01
 -1      1051-4.25535E+00-9.23700E+01-6.14374E-01
 -1      1052-3.74789E+00-9.26075E+01-5.78408E-01
 -1      1053-3.72628E+00-9.18532E+01-7.41783E-01
 -1      1054-4.32519E+00-9.20691E+01-6.82696E-01
 -1      1055 1.05242E+01-9.17478E+01-1.28538E+00
 -1      1056 9.25240E+00-9.16152E+01-1.24668E+00
 -1      1057 1.15374E+01-9.19119E+01-1.33330E+00
 -1      1058 7.09900E+00-9.14870E+01-1.16759E+00
 -1      1059 4.70605E+00-9.14250E+01-1.08853E+00
 -1      1060-1.99799E+00-9.16320E+01-8.33059E-01
 -1      1061 1.59423E+00-9.14550E+01-9.71004E-01
 -1      1062 1.24059E+01-9.24221E+01-1.39427E+00
 -1      1063 6.74892E-01 3.46175E-01-1.45167E-03
 -1      1064 1.32499E+00 5.95749E-01-2.44909E-02
 -1      1065 9.93710E+00-7.88998E+01-8.61239E-01
 -1      1066 1.04234E+01-8.35452E+01-9.32471E-01
 -1      1067 9.08152E+00-6.93382E+01-7.55715E-01
 -1      1068 9.50404E+00-7.42781E+01-8.05652E-01
 -1      1069 8.23800E+00-5.81804E+01-6.68177E-01
 -1      1070 8.66967E+00-6.41376E+01-7.10323E-01
 -1      1071 7.68606E+00-4.91056E+01-6.11609E-01
 -1      1072 7.95149E+00-5.37857E+01-6.39836E-01
 -1      1073 7.20192E+00-3.96878E+01-5.48269E-01
 -1      1074 7.45485E+00-4.48644E+01-5.83413E-01
 -1      1075 6.62741E+00-2.86569E+01-4.70944E-01
 -1      1076 6.94856E+00-3.46238E+01-5.10554E-01
 -1      1077 5.83344E+00-1.75636E+01-3.81480E-01
 -1      1078 6.29548E+00-2.34398E+01-4.32630E-01
 -1      1079 1.86137E+00 5.38635E-01-5.25875E-02
 -1      1080 1.23126E+01-9.26760E+01-1.34900E+00
 -1      1081 5.31304E+00-1.24412E+01-3.31437E-01
 -1      1082 2.37950E+00 1.34698E-01-9.20347E-02
 -1      1083 1.21262E+01-9.27114E+01-1.28515E+00
 -1      1084 1.18373E+01-9.21625E+01-1.20697E+00
 -1      1085 3.04266E+00-9.94654E-01-1.41740E-01
 -1      1086 3.81225E+00-3.36090E+00-2.02381E-01
 -1      1087 1.14635E+01-9.07433E+01-1.12280E+00
 -1      1088 1.09213E+01-8.75132E+01-1.01647E+00
 -1      1089 4.59307E+00-7.22871E+00-2.66964E-01
 -1      1090 1.90000E+01-4.63071E+01-6.58946E-01
 -1      1091 1.90000E+01-4.63040E+01-6.58946E-01
 -1      1092 1.90000E+01-4.62928E+01-6.58946E-01
 -1      1093 1.90000E+01-4.62962E+01-6.58946E-01
 -1      1094 1.90000E+01-4.63001E+01-6.58946E-01
 -1      1095 1.90000E+01-4.63806E+01-5.77708E-01
 -1      1096 1.90000E+01-4.62850E+01-5.66730E-01
 -1      1097 1.90000E+01-4.62793E+01-5.61532E-01
 -1      1098 1.90000E+01-4.62942E+01-5.84274E-01
 -1      1099 1.90000E+01-4.62940E+01-5.77422E-01
 -1      1100 1.90000E+01-4.62908E+01-5.76781E-01
 -1      1101 1.90000E+01-4.62999E+01-6.07034E-01
 -1      1102 1.90000E+01-4.62999E+01-5.96964E-01
 -1      1103 1.90000E+01-4.62998E+01-6.17835E-01
 -1      1104 1.90000E+01-4.62998E+01-6.43134E-01
 -1      1105 1.90000E+01-4.62998E+01-6.35641E-01
 -1      1106 1.90000E+01-4.62928E+01-6.55743E-01
 -1      1107 1.90000E+01-4.63743E+01-5.26584E-01
 -1      1108 1.90000E+01-4.62940E+01-5.81280E-01
 -1      1109 1.90000E+01-4.63070E+01-5.78405E-01
 -1      1110 1.90000E+01-4.63054E+01-5.79320E-01
 -1      1111 1.90000E+01-4.63047E+01-5.84784E-01
 -1      1112 1.90000E+01-4.63071E+01-6.55690E-01
 -1      1113 1.90000E+01-4.63548E+01-5.63827E-01
 -1      1114 1.90000E+01-4.63021E+01-6.54822E-01
 -1      1115 1.90000E+01-4.62982E+01-6.54822E-01
 -1      1116 1.90000E+01-4.63364E+01-5.65481E-01
 -1      1117 1.90000E+01-4.62948E+01-6.51619E-01
 -1      1118 1.90000E+01-4.63051E+01-6.51566E-01
 -1      1119 1.90000E+01-4.62998E+01-6.27993E-01
 -1      1120 1.90000E+01-4.62948E+01-6.46968E-01
 -1      1121 1.90000E+01-4.63051E+01-6.46862E-01
 -1      1122 1.90000E+01-4.62999E+01-5.86973E-01
 -1      1123 1.90347E+01-4.62937E+01-5.29621E-01
 -1      1124 1.90025E+01-4.63127E+01-5.75138E-01
 -1      1125 1.89896E+01-4.63158E+01-5.85050E-01
 -1      1126 1.89999E+01-4.63052E+01-5.85075E-01
 -1      1127 1.89999E+01-4.63056E+01-5.79793E-01
 -1      1128 1.90011E+01-4.63010E+01-5.77346E-01
 -1      1129 1.90000E+01-4.62999E+01-6.07043E-01
 -1      1130 1.90000E+01-4.62999E+01-5.96702E-01
 -1      1131 1.90000E+01-4.62998E+01-6.27995E-01
 -1      1132 1.90000E+01-4.62998E+01-6.17837E-01
 -1      1133 1.90000E+01-4.62998E+01-6.35641E-01
 -1      1134 1.90000E+01-4.63071E+01-6.55690E-01
 -1      1135 1.90039E+01-4.62373E+01-5.59944E-01
 -1      1136 1.90183E+01-4.63217E+01-5.70422E-01
 -1      1137 1.90002E+01-4.62927E+01-5.68856E-01
 -1      1138 1.89994E+01-4.62926E+01-5.77245E-01
 -1      1139 1.90000E+01-4.62951E+01-5.84549E-01
 -1      1140 1.90000E+01-4.62998E+01-6.43134E-01
 -1      1141 1.90000E+01-4.62928E+01-6.55743E-01
 -1      1142 1.89891E+01-4.62974E+01-5.68805E-01
 -1      1143 1.90000E+01-4.62981E+01-6.54822E-01
 -1      1144 1.90000E+01-4.63020E+01-6.54822E-01
 -1      1145 1.90131E+01-4.62539E+01-5.66900E-01
 -1      1146 1.90000E+01-4.63051E+01-6.51566E-01
 -1      1147 1.90000E+01-4.62948E+01-6.51619E-01
 -1      1148 1.90000E+01-4.63051E+01-6.46862E-01
 -1      1149 1.90000E+01-4.62948E+01-6.46968E-01
 -1      1150 1.90000E+01-4.62999E+01-5.86983E-01
 -1      1151 1.90733E+01-4.64104E+01-5.13387E-01
 -1      1152 1.90000E+01-4.63102E+01-6.55690E-01
 -1      1153 1.90165E+01-4.63325E+01-5.98469E-01
 -1      1154 1.90000E+01-4.63102E+01-6.52435E-01
 -1      1155 1.89988E+01-4.63019E+01-5.75071E-01
 -1      1156 1.90070E+01-4.63283E+01-5.92339E-01
 -1      1157 1.90000E+01-4.63102E+01-6.50469E-01
 -1      1158 1.90000E+01-4.63102E+01-6.50469E-01
 -1      1159 1.90003E+01-4.63071E+01-5.76945E-01
 -1      1160 1.89971E+01-4.63096E+01-5.78656E-01
 -1      1161 1.90001E+01-4.63080E+01-5.78444E-01
 -1      1162 1.90004E+01-4.63075E+01-5.78640E-01
 -1      1163 1.90000E+01-4.63098E+01-5.87263E-01
 -1      1164 1.90000E+01-4.63087E+01-5.81505E-01
 -1      1165 1.90000E+01-4.63102E+01-6.47731E-01
 -1      1166 1.90000E+01-4.63102E+01-6.43025E-01
 -1      1167 1.90000E+01-4.63101E+01-6.40228E-01
 -1      1168 1.90000E+01-4.63101E+01-6.40229E-01
 -1      1169 1.90000E+01-4.63099E+01-5.90705E-01
 -1      1170 1.90000E+01-4.63099E+01-5.90671E-01
 -1      1171 1.90000E+01-4.63101E+01-6.35380E-01
 -1      1172 1.90000E+01-4.63101E+01-6.27742E-01
 -1      1173 1.89981E+01-4.63102E+01-5.79427E-01
 -1      1174 1.90000E+01-4.63101E+01-6.23277E-01
 -1      1175 1.90000E+01-4.63101E+01-6.23279E-01
 -1      1176 1.90000E+01-4.63100E+01-6.07363E-01
 -1      1177 1.90000E+01-4.63100E+01-5.97144E-01
 -1      1178 1.90000E+01-4.63101E+01-6.17552E-01
 -1      1179 1.90000E+01-4.63092E+01-5.83729E-01
 -1      1180 1.90000E+01-4.63101E+01-6.32586E-01
 -1      1181 1.90000E+01-4.63100E+01-6.00716E-01
 -1      1182 1.90000E+01-4.63102E+01-6.45764E-01
 -1      1183 1.90000E+01-4.63101E+01-6.13087E-01
 -1      1184 1.24598E+01-9.28055E+01-1.24179E+00
 -1      1185 1.27505E+01-9.24771E+01-1.18115E+00
 -1      1186 1.31879E+01-9.15171E+01-1.11066E+00
 -1      1187 1.36674E+01-8.97699E+01-1.03962E+00
 -1      1188 1.55939E+01-7.77681E+01-8.05529E-01
 -1      1189 1.61653E+01-7.29612E+01-7.48674E-01
 -1      1190 1.66306E+01-6.87931E+01-7.08218E-01
 -1      1191 1.70836E+01-6.44220E+01-6.70888E-01
 -1      1192 1.74368E+01-6.08621E+01-6.46148E-01
 -1      1193 1.79182E+01-5.56838E+01-7.08038E-01
 -1      1194 1.81908E+01-5.27659E+01-7.00966E-01
 -1      1195 1.85323E+01-4.90327E+01-6.37656E-01
 -1      1196 1.85876E+01-4.90862E+01-5.17992E-01
 -1      1197 1.85149E+01-5.05355E+01-5.59458E-01
 -1      1198 1.82411E+01-5.28443E+01-4.90243E-01
 -1      1199 1.79588E+01-5.57131E+01-5.21101E-01
 -1      1200 1.50433E+01-8.18572E+01-8.64547E-01
 -1      1201 1.84881E+01-5.05431E+01-6.16207E-01
 -1      1202 1.43351E+01-8.64758E+01-9.50499E-01
 -1      1203 1.78095E+01-5.70927E+01-6.19355E-01
 -1      1204 1.90524E+01-4.63675E+01-5.66415E-01
 -1      1205 1.90000E+01-4.62895E+01-6.55743E-01
 -1      1206 1.90079E+01-4.62980E+01-5.55235E-01
 -1      1207 1.90000E+01-4.62895E+01-6.52539E-01
 -1      1208 1.89989E+01-4.63027E+01-5.63975E-01
 -1      1209 1.89983E+01-4.62896E+01-5.56735E-01
 -1      1210 1.90000E+01-4.62895E+01-6.50574E-01
 -1      1211 1.90000E+01-4.62895E+01-6.50574E-01
 -1      1212 1.89991E+01-4.62953E+01-5.73590E-01
 -1      1213 1.89939E+01-4.62917E+01-5.70455E-01
 -1      1214 1.89994E+01-4.62928E+01-5.76232E-01
 -1      1215 1.89999E+01-4.62941E+01-5.76364E-01
 -1      1216 1.90000E+01-4.62895E+01-5.86497E-01
 -1      1217 1.90001E+01-4.62915E+01-5.80032E-01
 -1      1218 1.90000E+01-4.62895E+01-5.90058E-01
 -1      1219 1.90000E+01-4.62895E+01-5.90054E-01
 -1      1220 1.90000E+01-4.62895E+01-6.43239E-01
 -1      1221 1.90000E+01-4.62895E+01-6.35745E-01
 -1      1222 1.90000E+01-4.62895E+01-6.47889E-01
 -1      1223 1.89951E+01-4.62918E+01-5.72988E-01
 -1      1224 1.90000E+01-4.62895E+01-6.28251E-01
 -1      1225 1.90000E+01-4.62895E+01-6.23814E-01
 -1      1226 1.90000E+01-4.62895E+01-6.23812E-01
 -1      1227 1.90000E+01-4.62895E+01-6.06645E-01
 -1      1228 1.90000E+01-4.62895E+01-5.96424E-01
 -1      1229 1.90000E+01-4.62895E+01-6.13010E-01
 -1      1230 1.90000E+01-4.62895E+01-6.13012E-01
 -1      1231 1.90002E+01-4.62906E+01-5.82690E-01
 -1      1232 1.90000E+01-4.62895E+01-6.00088E-01
 -1      1233 1.90000E+01-4.62895E+01-6.45923E-01
 -1      1234 1.82190E+01-4.37337E+01-3.37368E-01
 -1      1235 1.74841E+01-4.01325E+01-3.08858E-01
 -1      1236 1.68143E+01-3.69405E+01-3.11783E-01
 -1      1237 1.60833E+01-3.34509E+01-4.80857E-01
 -1      1238 1.49295E+01-2.83575E+01-4.41747E-01
 -1      1239 1.30174E+01-2.07714E+01-3.83087E-01
 -1      1240 1.15672E+01-1.57978E+01-3.35158E-01
 -1      1241 6.15273E+00-3.05011E+00-1.53895E-01
 -1      1242 4.40155E+00-9.94699E-01-1.03249E-01
 -1      1243 3.16451E+00-1.14697E-01-7.13981E-02
 -1      1244 1.99135E+00 2.98373E-01-3.40256E-02
 -1      1245 7.95003E+00-6.22816E+00-2.12822E-01
 -1      1246 1.01407E+01-1.15192E+01-2.86774E-01
 -1      1247 1.70305E+01-3.78316E+01-6.91659E-01
 -1      1248 1.75523E+01-4.02628E+01-7.24019E-01
 -1      1249 1.82700E+01-4.38457E+01-7.51633E-01
 -1      1250 1.79634E+01-4.21056E+01-4.47319E-01
 -1      1251 1.41381E+01-2.50711E+01-4.18496E-01
 -1      1252 1.64183E+01-3.49293E+01-6.57282E-01
 -1      1253 1.79734E+01-4.21100E+01-5.99614E-01
 -1      1254-2.57156E+00-9.11157E+01-4.83755E-01
 -1      1255-3.41023E+00-9.13969E+01-5.14271E-01
 -1      1256-4.07498E+00-9.17088E+01-5.54516E-01
 -1      1257-4.40113E+00-9.20297E+01-5.97638E-01
 -1      1258 8.07196E+00-9.32941E+01-1.13390E+00
 -1      1259 9.62438E+00-9.31854E+01-1.18227E+00
 -1      1260 1.08814E+01-9.30448E+01-1.22843E+00
 -1      1261 1.16888E+01-9.29060E+01-1.26622E+00
 -1      1262-4.20271E+00-9.24122E+01-6.57412E-01
 -1      1263-3.25817E+00-9.27395E+01-7.16772E-01
 -1      1264 2.71600E+00-9.33194E+01-9.59067E-01
 -1      1265 5.53741E+00-9.33532E+01-1.05282E+00
 -1      1266-1.00831E+00-9.30473E+01-8.23992E-01
 -1      1267-6.43299E-01-7.23809E-01 1.31903E-02
 -1      1268-9.88799E-01-1.85226E+00 8.30006E-03
 -1      1269-1.41059E+00-3.99950E+00 3.43039E-03
 -1      1270-1.72905E+00-6.69760E+00-9.58318E-03
 -1      1271-2.33160E+00-8.02649E+01-4.14811E-01
 -1      1272-2.01988E+00-8.50349E+01-4.28181E-01
 -1      1273-1.69914E+00-8.83562E+01-4.38826E-01
 -1      1274-2.04983E+00-1.11515E+01-2.56624E-02
 -1      1275-2.27190E+00-1.67272E+01-4.69548E-02
 -1      1276-2.57590E+00-7.41489E+01-3.88643E-01
 -1      1277-2.70652E+00-6.63492E+01-3.46470E-01
 -1      1278-2.74531E+00-5.85102E+01-2.98573E-01
 -1      1279-2.48248E+00-2.62769E+01-9.13637E-02
 -1      1280-2.61421E+00-3.61337E+01-1.50560E-01
 -1      1281-2.69915E+00-4.66784E+01-2.21400E-01
 -1      1282 4.92576E-01 1.97717E-01 2.25484E-02
 -1      1283 1.21343E-01 1.20640E-01 3.34137E-02
 -1      1284-2.25328E-03 5.19956E-02 2.93678E-02
 -1      1285 2.96749E-03 1.80990E-02 9.57069E-03
 -1      1286 2.13779E-03-1.94792E-02-1.55276E-03
 -1      1287-4.94823E-03-2.66750E-02-1.21843E-03
 -1      1288-1.95020E-01-7.31437E-02-1.22922E-03
 -1      1289 5.17817E-03 7.83073E-03 4.83716E-03
 -1      1290-7.04901E-02-3.49750E-02-6.05306E-03
 -1      1291-8.28160E-04-3.83178E-03-9.42331E-04
 -1      1292-1.63003E-03-8.85228E-03-1.62334E-03
 -1      1293 5.19574E-04 3.30583E-03 2.08704E-03
 -1      1294 1.76674E-04-3.79311E-04 2.30591E-05
 -1      1295 2.05122E-01-5.35561E-02-1.69845E-03
 -1      1296 2.04567E+00-9.23159E+01-4.20359E-01
 -1      1297 5.48391E-01-3.68030E-01-4.67109E-03
 -1      1298 1.02885E+00-1.30764E+00 2.57091E-03
 -1      1299 1.53166E+00-3.27610E+00 1.31734E-02
 -1      1300 3.27340E+00-7.52718E+01-3.01599E-01
 -1      1301 3.04478E+00-8.10580E+01-3.22902E-01
 -1      1302 2.80198E+00-8.52103E+01-3.54896E-01
 -1      1303 2.48435E+00-8.83401E+01-3.76006E-01
 -1      1304 2.20307E+00-9.05128E+01-3.98192E-01
 -1      1305 3.36838E+00-6.83597E+01-2.55988E-01
 -1      1306 1.99455E+00-6.79492E+00-6.97953E-04
 -1      1307 2.36432E+00-1.12983E+01-4.45924E-03
 -1      1308 3.38675E+00-5.95439E+01-2.30797E-01
 -1      1309 3.30130E+00-4.94558E+01-1.74769E-01
 -1      1310 2.66119E+00-1.77983E+01-3.81777E-02
 -1      1311 2.94227E+00-2.75059E+01-7.49247E-02
 -1      1312 3.13953E+00-3.77570E+01-1.31330E-01
 -1      1313 1.22485E+01-9.23429E+01-1.40536E+00
 -1      1314 1.22670E+01-9.26813E+01-1.37377E+00
 -1      1315 1.22566E+01-9.28029E+01-1.30776E+00
 -1      1316 1.22637E+01-9.25541E+01-1.24308E+00
 -1      1317 1.22783E+01-9.16725E+01-1.16829E+00
 -1      1318 1.23365E+01-8.26853E+01-9.16803E-01
 -1      1319 1.23489E+01-7.84447E+01-8.50886E-01
 -1      1320 1.23664E+01-7.37534E+01-7.92513E-01
 -1      1321 1.23774E+01-6.93416E+01-7.46414E-01
 -1      1322 1.23942E+01-6.15065E+01-6.83755E-01
 -1      1323 1.23872E+01-5.65809E+01-6.52481E-01
 -1      1324 1.14006E+01-3.72159E+01-3.27785E-01
 -1      1325 1.07785E+01-3.19191E+01-2.99730E-01
 -1      1326 1.01172E+01-2.69393E+01-2.66918E-01
 -1      1327 9.33486E+00-2.17211E+01-2.25084E-01
 -1      1328 8.45454E+00-1.65611E+01-1.77460E-01
 -1      1329 7.40205E+00-1.14748E+01-1.21724E-01
 -1      1330 5.99073E+00-6.11527E+00-4.92365E-02
 -1      1331 4.72619E+00-2.75936E+00 1.60260E-02
 -1      1332 3.53682E+00-7.08852E-01 7.18063E-02
 -1      1333 2.66629E+00 1.39357E-01 1.10373E-01
 -1      1334 1.78341E+00 4.81951E-01 1.46587E-01
 -1      1335 1.09662E+00 3.90667E-01 1.75423E-01
 -1      1336 5.22446E-01 1.88409E-01 1.66344E-01
 -1      1337 3.34807E-01-9.21630E+01-3.49660E-01
 -1      1338-1.40700E+00-9.20951E+01-3.79823E-01
 -1      1339-2.67691E+00-9.20722E+01-4.40297E-01
 -1      1340-3.76627E+00-9.20915E+01-5.15523E-01
 -1      1341 6.70718E+00-9.22634E+01-1.12103E+00
 -1      1342 8.95748E+00-9.22854E+01-1.20612E+00
 -1      1343 1.03879E+01-9.23019E+01-1.26346E+00
 -1      1344 1.14802E+01-9.23094E+01-1.32648E+00
 -1      1345 4.94861E-01 7.64559E-02 1.58477E-01
 -1      1346 1.85331E-01-2.61470E-02 1.06494E-01
 -1      1347 1.72545E-02-2.75706E-03 4.19746E-02
 -1      1348-5.05618E-04-6.60303E-03-2.32767E-03
 -1      1349 1.15452E-03-1.84216E-02-4.17998E-03
 -1      1350-1.84088E-02-4.11329E-02-1.95634E-02
 -1      1351-8.74457E-02-5.96858E-02-5.39396E-02
 -1      1352-1.25428E-01-3.27263E-02-5.58324E-02
 -1      1353 7.57691E-06 2.60925E-02-9.56394E-03
 -1      1354 6.67125E-02-1.81906E-01 5.97617E-03
 -1      1355 1.04235E-01-8.21952E-01 9.36220E-03
 -1      1356 1.02690E-01-2.28712E+00 1.52505E-02
 -1      1357 3.75923E-01-8.18453E+01-3.44242E-01
 -1      1358 3.89719E-01-8.59476E+01-3.63138E-01
 -1      1359 3.79891E-01-9.09091E+01-3.61018E-01
 -1      1360-9.61508E-04-2.92198E-03-1.09489E-03
 -1      1361 1.22968E+01-9.00092E+01-1.09319E+00
 -1      1362 1.23113E+01-8.70946E+01-1.00596E+00
 -1      1363 1.63721E+01-4.80111E+01-5.52231E-01
 -1      1364 1.63317E+01-5.02630E+01-6.58867E-01
 -1      1365 1.58927E+01-4.25743E+01-2.70819E-01
 -1      1366 1.61677E+01-4.45883E+01-3.55978E-01
 -1      1367-1.20149E-02 1.30694E-02 5.88335E-03
 -1      1368 9.36183E-02-4.59132E+00 1.07442E-02
 -1      1369 3.58711E-01-7.67479E+01-3.24342E-01
 -1      1370 3.99051E-01-8.87749E+01-3.67145E-01
 -1      1371-4.33565E+00-9.21156E+01-5.65602E-01
 -1      1372-3.70867E+00-9.21600E+01-7.18738E-01
 -1      1373-4.41723E+00-9.21334E+01-6.37283E-01
 -1      1374 2.37185E-03 6.91544E-03 4.80590E-03
 -1      1375 1.36548E-01-8.44282E+00 1.24911E-03
 -1      1376 1.52282E-01-1.36994E+01-1.66177E-02
 -1      1377 1.20476E+01-9.23416E+01-1.38005E+00
 -1      1378 1.23891E+01-6.50235E+01-7.09664E-01
 -1      1379 1.01776E+01-5.40577E+01-5.85945E-01
 -1      1380 1.00038E+01-5.01377E+01-5.42833E-01
 -1      1381 1.01589E+01-4.57922E+01-4.66590E-01
 -1      1382 9.90882E+00-4.13964E+01-4.08905E-01
 -1      1383-3.57232E-04-1.10383E-03-4.57997E-04
 -1      1384 9.33364E-04 2.05759E-03 1.85464E-03
 -1      1385 3.36256E-01-6.98716E+01-2.91605E-01
 -1      1386 1.86508E-01-2.04388E+01-4.35026E-02
 -1      1387 1.59004E+01-5.17744E+01-6.91928E-01
 -1      1388 1.57689E+01-5.47260E+01-7.26150E-01
 -1      1389 3.15430E-01-6.19991E+01-2.58738E-01
 -1      1390-1.95662E+00-9.21742E+01-8.08977E-01
 -1      1391 3.87511E+00-9.22371E+01-1.03378E+00
 -1      1392 1.39379E+01-5.06554E+01-6.08118E-01
 -1      1393 1.55503E-04 4.56713E-04 5.11385E-04
 -1      1394 7.83137E-01-9.22077E+01-9.15710E-01
 -1      1395 2.15022E-01-2.99079E+01-8.64323E-02
 -1      1396 1.54250E+01-4.00661E+01-2.26877E-01
 -1      1397 1.36332E+01-4.09649E+01-3.03323E-01
 -1      1398 1.68065E+01-4.59294E+01-4.14682E-01
 -1      1399 1.68821E+01-4.65134E+01-4.58503E-01
 -1      1400 1.49050E+01-3.68839E+01-2.10548E-01
 -1      1401 1.45104E+01-4.48518E+01-3.86099E-01
 -1      1402 1.46655E+01-4.76767E+01-5.11282E-01
 -1      1403 2.48083E-01-4.02818E+01-1.44512E-01
 -1      1404 2.85360E-01-5.18587E+01-2.04953E-01
 -1      1405 1.02936E+01-4.85804E+01-5.18974E-01
 -1      1406 1.06285E+01-4.71236E+01-4.89638E-01
 -1      1407 9.62911E+00-3.88892E+01-3.92910E-01
 -1      1408 1.23484E+01-9.27923E+01-1.28699E+00
 -1      1409 1.23672E+01-9.24505E+01-1.34013E+00
 -1      1410 1.23594E+01-9.23706E+01-1.16438E+00
 -1      1411 1.23426E+01-9.28440E+01-1.23173E+00
 -1      1412 1.24302E+01-8.00187E+01-8.39006E-01
 -1      1413 1.24122E+01-8.44007E+01-9.07237E-01
 -1      1414 1.24516E+01-7.08205E+01-7.39445E-01
 -1      1415 1.24381E+01-7.55553E+01-7.85499E-01
 -1      1416 1.24667E+01-6.14224E+01-6.62493E-01
 -1      1417 1.24581E+01-6.63826E+01-7.01059E-01
 -1      1418 9.65618E+00-2.33899E+01-6.01965E-01
 -1      1419 1.03893E+01-2.84556E+01-6.39592E-01
 -1      1420 5.77145E+00-5.30715E+00-4.08225E-01
 -1      1421 7.06777E+00-9.82442E+00-4.70965E-01
 -1      1422 3.43991E+00-5.59005E-01-3.05645E-01
 -1      1423 4.57355E+00-2.35416E+00-3.54166E-01
 -1      1424 1.88489E+00 4.99367E-01-2.26263E-01
 -1      1425 2.55801E+00 2.25447E-01-2.64460E-01
 -1      1426 5.39031E-01 1.75103E-01-1.75940E-01
 -1      1427 1.17114E+00 4.01078E-01-2.07240E-01
 -1      1428-1.29779E+00-9.21547E+01-5.49590E-01
 -1      1429 3.75652E-01-9.22260E+01-5.11436E-01
 -1      1430-3.44264E+00-9.21482E+01-5.93072E-01
 -1      1431-2.56019E+00-9.21328E+01-5.76135E-01
 -1      1432-4.40976E+00-9.21836E+01-6.45170E-01
 -1      1433-4.10164E+00-9.21686E+01-6.15453E-01
 -1      1434 9.72189E+00-9.23565E+01-1.21461E+00
 -1      1435 8.28593E+00-9.23424E+01-1.17987E+00
 -1      1436 1.16947E+01-9.23737E+01-1.26848E+00
 -1      1437 1.09686E+01-9.23661E+01-1.24303E+00
 -1      1438 1.21654E+01-9.24020E+01-1.30244E+00
 -1      1439 4.71379E-01 1.96901E-02-1.57071E-01
 -1      1440-1.38799E-03 1.08959E-02 1.10681E-03
 -1      1441-1.81478E-02 2.00472E-02 7.52603E-03
 -1      1442 1.68066E-03-1.83727E-02 6.88147E-03
 -1      1443-6.40663E-04-7.48049E-03 1.31354E-03
 -1      1444-8.56700E-02-6.25578E-02 5.22589E-02
 -1      1445-1.63976E-02-3.95502E-02 2.23799E-02
 -1      1446 5.31347E-03 2.21679E-02 7.01181E-03
 -1      1447-1.32670E-01-3.81969E-02 5.12854E-02
 -1      1448 6.52815E-02-2.13574E-01-4.89983E-03
 -1      1449 1.40712E-01-9.28146E+00-2.53176E-02
 -1      1450 1.31663E-01-5.06261E+00-7.87620E-03
 -1      1451 4.39075E-01-8.77024E+01-4.46350E-01
 -1      1452 4.08186E-01-8.43774E+01-4.19133E-01
 -1      1453 4.23219E-01-9.04753E+01-4.93125E-01
 -1      1454-9.28145E-04-3.62858E-03 1.07661E-04
 -1      1455 4.93829E-04 3.47471E-03-4.23394E-06
 -1      1456 1.29144E-02-1.61417E-03-2.05163E-02
 -1      1457 1.84127E-01-4.24402E-02-9.55341E-02
 -1      1458 1.75697E-01-1.41449E+01-4.35870E-02
 -1      1459 1.07405E-01-2.60312E+00-1.91036E-04
 -1      1460 1.01948E-01-8.24448E-01 3.75599E-03
 -1      1461 7.96769E+00-1.38190E+01-5.15363E-01
 -1      1462 8.99192E+00-1.92489E+01-5.67223E-01
 -1      1463 1.40900E+01-3.54819E+01-7.76041E-01
 -1      1464 1.36113E+01-3.26813E+01-7.42828E-01
 -1      1465 1.48121E+01-4.02620E+01-8.15647E-01
 -1      1466 1.44656E+01-3.78290E+01-7.96133E-01
 -1      1467 1.16897E+01-3.62659E+01-7.05607E-01
 -1      1468 1.52783E+01-4.39808E+01-7.81140E-01
 -1      1469 1.50600E+01-4.20979E+01-8.14009E-01
 -1      1470 1.21255E+01-4.04702E+01-7.32799E-01
 -1      1471 1.63671E+01-5.03530E+01-5.07863E-01
 -1      1472 1.64484E+01-4.80066E+01-5.85925E-01
 -1      1473 1.61110E+01-5.61825E+01-4.99688E-01
 -1      1474 1.62677E+01-5.33466E+01-4.75194E-01
 -1      1475 1.43692E+01-5.22179E+01-5.63628E-01
 -1      1476 1.24619E+01-5.76802E+01-6.36221E-01
 -1      1477 1.23982E+01-8.83619E+01-9.92688E-01
 -1      1478 1.23743E+01-9.12354E+01-1.09310E+00
 -1      1479 1.08536E+01-3.20181E+01-6.64560E-01
 -1      1480 8.78944E+00-3.56092E+01-6.30905E-01
 -1      1481 9.08329E+00-3.99043E+01-6.62822E-01
 -1      1482-3.45344E+00-9.22218E+01-7.39799E-01
 -1      1483-4.23506E+00-9.22009E+01-6.92620E-01
 -1      1484-2.97990E-04-1.20741E-03 7.88427E-05
 -1      1485 3.79261E-01-7.86741E+01-3.89180E-01
 -1      1486 3.80929E-01-7.26886E+01-3.56574E-01
 -1      1487 9.20300E+00-4.17468E+01-6.75912E-01
 -1      1488 9.43739E+00-4.60216E+01-6.82024E-01
 -1      1489 1.04040E+01-4.94621E+01-6.76998E-01
 -1      1490 1.05704E+01-5.37550E+01-6.78382E-01
 -1      1491 5.87981E+00-9.23283E+01-1.10374E+00
 -1      1492 3.52788E-01-6.49025E+01-3.15934E-01
 -1      1493 3.32534E-01-5.60583E+01-2.66111E-01
 -1      1494 3.22475E+00-9.23014E+01-1.00610E+00
 -1      1495 1.33600E+01-4.57325E+01-6.93700E-01
 -1      1496 1.69092E+01-4.65004E+01-6.68589E-01
 -1      1497 1.68679E+01-4.59323E+01-7.01710E-01
 -1      1498 8.61584E+00-3.33261E+01-6.16879E-01
 -1      1499 1.06768E+01-5.66162E+01-6.87446E-01
 -1      1500-2.76723E-04 1.10445E-03 5.09352E-04
 -1      1501 2.96705E-01-4.51485E+01-2.04997E-01
 -1      1502 2.15983E-01-2.35214E+01-8.65305E-02
 -1      1503 2.57581E-01-3.36190E+01-1.40720E-01
 -1      1504 1.47498E+01-4.76916E+01-6.30004E-01
 -1      1505 1.36782E+01-4.42585E+01-7.33918E-01
 -1      1506-2.76791E+00-9.19457E+01-7.72263E-01
 -1      1507-2.77185E+00-9.25529E+01-7.78602E-01
 -1      1508 8.76892E-01-9.25645E+01-9.24194E-01
 -1      1509 9.63231E-01-9.16110E+01-9.41193E-01
 -1      1510 2.95585E-01-9.27444E+01-9.02330E-01
 -1      1511-2.34401E+00-9.17809E+01-7.94111E-01
 -1      1512-1.54783E+00-9.21271E+01-8.32904E-01
 -1      1513 0.00000E+00 0.00000E+00 0.00000E+00
 -1      1514 0.00000E+00 0.00000E+00 0.00000E+00
 -1      1515 0.00000E+00 0.00000E+00 0.00000E+00
 -1      1516 0.00000E+00 0.00000E+00 0.00000E+00
 -1      1517 0.00000E+00 0.00000E+00 0.00000E+00
 -1      1518 0.00000E+00 0.00000E+00 0.00000E+00
 -1      1519 0.00000E+00 0.00000E+00 0.00000E+00
 -1      1520 0.00000E+00 0.00000E+00 0.00000E+00
 -1      1521 0.00000E+00 0.00000E+00 0.00000E+00
 -1      1522 0.00000E+00 0.00000E+00 0.00000E+00
 -1      1523 0.00000E+00 0.00000E+00 0.00000E+00
 -1      1524 0.00000E+00 0.00000E+00 0.00000E+00
 -1      1525 0.00000E+00 0.00000E+00 0.00000E+00
 -1      1526 0.00000E+00 0.00000E+00 0.00000E+00
 -1      1527 0.00000E+00 0.00000E+00 0.00000E+00
 -1      1528 4.17404E-01-9.35366E+01-4.55727E-01
 -1      1529 1.22642E+01-9.20560E+01-1.41400E+00
 -1      1530 1.19655E+01-9.19500E+01-1.37545E+00
 -1      1531-1.24677E+00-9.33764E+01-4.93011E-01
 -1      1532-2.55147E+00-9.31072E+01-5.25331E-01
 -1      1533-3.66090E+00-9.27455E+01-5.78591E-01
 -1      1534-4.20762E+00-9.24465E+01-6.17032E-01
 -1      1535-4.33886E+00-9.20623E+01-6.80358E-01
 -1      1536-3.80349E+00-9.17768E+01-7.40077E-01
 -1      1537 4.41462E+00-9.11940E+01-1.08744E+00
 -1      1538 6.92098E+00-9.12663E+01-1.16825E+00
 -1      1539 9.12026E+00-9.14159E+01-1.24806E+00
 -1      1540 1.04237E+01-9.15734E+01-1.29077E+00
 -1      1541 1.14761E+01-9.17883E+01-1.33905E+00
 -1      1542-2.14201E+00-9.14944E+01-8.34611E-01
 -1      1543 1.27880E+00-9.12602E+01-9.63366E-01
 -1      1544 1.24855E+01-9.23338E+01-1.41059E+00
 -1      1545 5.74623E-01 3.09675E-01 7.89490E-06
 -1      1546 1.23786E+01-9.26307E+01-1.36487E+00
 -1      1547 1.21582E+01-9.27290E+01-1.30412E+00
 -1      1548 1.18098E+01-9.23161E+01-1.22957E+00
 -1      1549 1.01494E+01-8.49206E+01-9.64395E-01
 -1      1550 9.56584E+00-8.07095E+01-8.92030E-01
 -1      1551 8.99550E+00-7.60524E+01-8.31367E-01
 -1      1552 8.47997E+00-7.14167E+01-7.81355E-01
 -1      1553 7.99369E+00-6.67039E+01-7.36760E-01
 -1      1554 7.52181E+00-6.17964E+01-6.96413E-01
 -1      1555 7.08637E+00-5.68976E+01-6.63629E-01
 -1      1556 6.76162E+00-5.28225E+01-6.35791E-01
 -1      1557 6.49515E+00-4.88800E+01-6.11644E-01
 -1      1558 6.26027E+00-4.45984E+01-5.82865E-01
 -1      1559 6.09552E+00-4.02892E+01-5.54699E-01
 -1      1560 5.94810E+00-3.59827E+01-5.21075E-01
 -1      1561 5.77423E+00-3.07746E+01-4.87679E-01
 -1      1562 5.56428E+00-2.54368E+01-4.50373E-01
 -1      1563 5.30988E+00-2.03972E+01-4.09271E-01
 -1      1564 4.93100E+00-1.47409E+01-3.57978E-01
 -1      1565 4.49031E+00-9.97866E+00-3.06807E-01
 -1      1566 3.88637E+00-5.37854E+00-2.43807E-01
 -1      1567 3.25397E+00-2.24449E+00-1.83206E-01
 -1      1568 2.62936E+00-4.33481E-01-1.26029E-01
 -1      1569 2.11420E+00 3.50657E-01-7.87790E-02
 -1      1570 1.67953E+00 6.16128E-01-4.16093E-02
 -1      1571 1.19290E+00 5.67209E-01-1.13022E-03
 -1      1572 1.14000E+01-9.12464E+01-1.15387E+00
 -1      1573 1.07534E+01-8.84704E+01-1.04722E+00
 -1      1574 1.00581E+01-8.22742E+01-9.97800E-01
 -1      1575 1.26431E+01-8.42245E+01-8.93165E-01
 -1      1576 1.05738E+01-8.61598E+01-1.06238E+00
 -1      1577 1.57714E+01-7.32419E+01-7.42916E-01
 -1      1578 1.52310E+01-7.78438E+01-9.05564E-01
 -1      1579 1.57459E+01-7.30529E+01-8.55269E-01
 -1      1580 7.82121E+00-5.94503E+01-6.89662E-01
 -1      1581 7.70556E+00-5.84489E+01-5.67379E-01
 -1      1582 8.09595E+00-6.32204E+01-5.98131E-01
 -1      1583 9.03376E+00-7.28319E+01-8.90441E-01
 -1      1584 9.29400E+00-7.57465E+01-8.14353E-01
 -1      1585 9.49161E+00-7.72859E+01-9.34122E-01
 -1      1586 2.84312E+00-3.80778E+01-1.18812E-01
 -1      1587 2.66516E+00-2.78159E+01-6.34288E-02
 -1      1588 2.75459E+00-3.18686E+01-1.01594E-01
 -1      1589 8.71225E+00-6.97399E+01-7.73345E-01
 -1      1590 8.56173E+00-6.85292E+01-6.47356E-01
 -1      1591 8.99235E+00-7.30364E+01-6.96555E-01
 -1      1592 3.85574E+00-5.50002E-01-3.20938E-01
 -1      1593 2.63929E+00 1.69245E-01-2.44057E-01
 -1      1594 2.72620E+00 1.05557E-01-7.97490E-02
 -1      1595 6.11102E-03-2.06036E-02 2.72580E-03
 -1      1596 2.28493E-03-1.81463E-02 7.17338E-03
 -1      1597 7.60192E-03-3.01826E-02-4.50171E-03
 -1      1598 9.50042E-01-1.30851E+00-7.28561E-02
 -1      1599 1.39083E+00-3.30981E+00-5.25810E-02
 -1      1600-1.02587E-02-2.20340E+00 7.68096E-03
 -1      1601 2.07672E-01-9.05462E+01-3.63933E-01
 -1      1602-1.21937E+00-9.09307E+01-3.62241E-01
 -1      1603-1.39961E+00-8.89767E+01-3.86369E-01
 -1      1604 1.86948E+00-9.34106E+01-4.26959E-01
 -1      1605 1.83014E+00-9.34980E+01-3.74322E-01
 -1      1606 2.58180E-01-9.33707E+01-4.53175E-01
 -1      1607 1.88935E-01-9.34385E+01-4.30184E-01
 -1      1608 4.68396E-01-2.50719E+01-6.07998E-02
 -1      1609-2.14974E+00-2.19245E+01-8.41568E-02
 -1      1610-2.29393E+00-3.14914E+01-1.29446E-01
 -1      1611 2.32888E+00 3.50106E-01-2.29365E-01
 -1      1612 1.66848E+00 5.31848E-01-1.96902E-01
 -1      1613 1.78397E+00 6.03604E-01-1.78054E-01
 -1      1614 1.28891E+00 6.11569E-01-1.77172E-01
 -1      1615 1.22385E+01-9.27409E+01-1.31513E+00
 -1      1616 1.22650E+01-9.27728E+01-1.25389E+00
 -1      1617 1.23559E+01-9.27970E+01-1.30287E+00
 -1      1618 1.24253E+01-9.28297E+01-1.24681E+00
 -1      1619 1.82017E+00-9.34453E+01-4.89164E-01
 -1      1620 1.68571E+01-4.01081E+01-2.03428E-01
 -1      1621 1.72335E+01-4.15706E+01-3.56138E-01
 -1      1622 1.73754E+01-4.29081E+01-2.65241E-01
 -1      1623 9.16703E-03 5.42775E-03-1.62511E-04
 -1      1624 2.16487E-01-5.86746E-02 2.71575E-03
 -1      1625 1.19545E-02 9.52809E-03 9.90889E-04
 -1      1626 1.69363E+01-6.04597E+01-7.72835E-01
 -1      1627 1.66680E+01-6.39781E+01-6.56479E-01
 -1      1628 1.66182E+01-6.40422E+01-7.86524E-01
 -1      1629 8.48824E+00-1.48308E+01-5.15128E-01
 -1      1630 5.50430E+00-1.73720E+01-4.55273E-01
 -1      1631 5.03811E+00-1.22372E+01-4.12426E-01
 -1      1632 2.44168E+00-1.88646E+01-1.81331E-02
 -1      1633 2.23797E+00-1.33701E+01-1.99536E-02
 -1      1634 2.59002E+00-2.40640E+01-6.11001E-02
 -1      1635 2.43779E+00-1.82747E+01-6.37267E-02
 -1      1636 2.76275E+00-8.12954E+01-3.63318E-01
 -1      1637 6.43951E-01-7.84276E+01-3.28139E-01
 -1      1638 1.49482E-01-8.49013E+01-3.58018E-01
 -1      1639-1.96648E+00-8.21899E+01-3.80601E-01
 -1      1640 1.29148E+01-5.91202E+01-6.79915E-01
 -1      1641 1.72759E+01-5.64082E+01-7.62401E-01
 -1      1642-2.36512E+00-9.11568E+01-4.70119E-01
 -1      1643-2.48026E+00-9.11345E+01-4.14886E-01
 -1      1644 5.23969E+00-1.48890E+01-2.82137E-01
 -1      1645 4.93096E+00-1.15369E+01-3.32218E-01
 -1      1646 5.33481E+00-1.57734E+01-3.57952E-01
 -1      1647 1.23475E+01-9.24799E+01-1.32877E+00
 -1      1648 1.21795E+01-9.24438E+01-1.29705E+00
 -1      1649 1.23168E+01-9.21246E+01-1.42113E+00
 -1      1650 1.21052E+01-9.20493E+01-1.40171E+00
 -1      1651-1.30799E+00-9.32928E+01-4.58240E-01
 -1      1652 1.71089E+01-5.89498E+01-6.49850E-01
 -1      1653 2.85813E-01-4.62523E+00-1.08340E-02
 -1      1654-1.17278E+00-3.40636E+00 6.28752E-02
 -1      1655-1.48326E+00-6.04433E+00 4.10292E-02
 -1      1656-1.52962E+00-9.19718E+01-3.79099E-01
 -1      1657 5.85336E-01-4.71907E-01-1.15608E-02
 -1      1658 5.56045E-01-3.99639E-01 7.59935E-02
 -1      1659 5.16476E-01-3.46807E-01-8.70116E-02
 -1      1660 4.81341E-01-3.23869E-01 3.80553E-03
 -1      1661 1.68150E+01-6.26614E+01-5.39932E-01
 -1      1662 1.48854E+01-3.00309E+01-7.39415E-01
 -1      1663 1.41203E+01-2.66292E+01-7.08183E-01
 -1      1664 1.41657E+01-2.69943E+01-4.02624E-01
 -1      1665 1.19277E+01-6.45585E+01-6.95428E-01
 -1      1666 6.06100E+00-9.24287E+01-1.10576E+00
 -1      1667 3.50594E+00-9.13324E+01-1.03741E+00
 -1      1668 6.05011E+00-9.13729E+01-1.14759E+00
 -1      1669-2.59281E-05 7.29492E-04-7.03811E-04
 -1      1670-2.19374E-03-5.04173E-03 3.12909E-03
 -1      1671-3.07809E-03-2.64104E-03 2.67225E-03
 -1      1672-2.78357E-02-4.15167E-02 2.64346E-02
 -1      1673 7.48624E-05-2.31063E-03 1.66260E-03
 -1      1674 1.69038E-01-9.20219E+01-3.42851E-01
 -1      1675 7.95096E+00-9.13940E+01-1.18493E+00
 -1      1676 6.79962E+00-9.23718E+01-1.12128E+00
 -1      1677 5.59932E+00-9.12930E+01-1.12020E+00
 -1      1678-7.96853E-01-1.47667E+00 7.27241E-02
 -1      1679-5.11395E-01-5.78709E-01 5.70410E-03
 -1      1680-5.00736E-01-5.54757E-01 5.89219E-02
 -1      1681 7.91696E+00-9.31684E+01-1.14294E+00
 -1      1682 9.01266E+00-9.21983E+01-1.21017E+00
 -1      1683 1.18114E+01-9.28486E+01-1.24378E+00
 -1      1684 1.17696E+01-9.23217E+01-1.28074E+00
 -1      1685 1.10972E+01-9.29727E+01-1.21910E+00
 -1      1686-2.28679E+00-7.33460E+01-3.96092E-01
 -1      1687 1.00482E-01-7.55677E+01-3.78282E-01
 -1      1688-2.07262E+00-7.95148E+01-4.40733E-01
 -1      1689 1.20158E-01-8.15574E+01-4.13467E-01
 -1      1690-8.40232E-01-1.64143E+00-6.05361E-02
 -1      1691-5.04134E-01-6.05159E-01-4.81727E-02
 -1      1692 1.68891E-01-6.47250E-01 1.60780E-02
 -1      1693 4.44117E-05-1.53354E-05 1.39555E-04
 -1      1694 6.59119E-05-6.76299E-05-1.31684E-04
 -1      1695-1.47260E-05 4.07519E-04-2.07273E-04
 -1      1696 1.26775E+01-9.25530E+01-1.18560E+00
 -1      1697 1.24650E+01-9.28487E+01-1.19333E+00
 -1      1698 1.27258E+01-9.25474E+01-1.12903E+00
 -1      1699 2.44682E+00-9.12898E+01-1.01311E+00
 -1      1700 3.89612E+00-9.21328E+01-1.03807E+00
 -1      1701 9.24052E-01-9.23096E+01-9.16636E-01
 -1      1702 2.30595E+00-9.31592E+01-9.36797E-01
 -1      1703 1.25352E+01-9.21652E+01-1.46161E+00
 -1      1704 1.29978E+00-2.82069E+00 1.67301E-02
 -1      1705 9.81991E-01-1.39598E+00 7.87122E-02
 -1      1706-9.52901E-02-5.15248E-02-4.33115E-03
 -1      1707-1.12303E-02-3.18820E-02-3.50504E-03
 -1      1708-5.83972E-02-5.42777E-02-1.66213E-02
 -1      1709 1.27917E+01-2.11987E+01-6.58329E-01
 -1      1710 8.73412E+00-1.99912E+01-5.45552E-01
 -1      1711 1.17346E+01-1.73228E+01-6.17015E-01
 -1      1712 1.20051E+01-7.40030E+01-7.86143E-01
 -1      1713 1.10811E+01-5.23389E+01-6.60925E-01
 -1      1714 1.11768E+01-5.52616E+01-6.61385E-01
 -1      1715 1.57511E+01-5.08572E+01-5.32768E-01
 -1      1716 1.56774E+01-5.38307E+01-5.07106E-01
 -1      1717 1.24094E+01-9.23533E+01-1.15419E+00
 -1      1718 1.20980E+01-9.27277E+01-1.32233E+00
 -1      1719 1.23220E+01-9.28391E+01-1.24385E+00
 -1      1720 1.61413E+01-6.91601E+01-8.22201E-01
 -1      1721 1.28130E+01-6.81608E+01-7.44983E-01
 -1      1722 1.27616E+01-7.21635E+01-7.82991E-01
 -1      1723 3.19583E+00-3.58835E-01-2.73365E-01
 -1      1724-1.24952E+00-9.10064E+01-4.44240E-01
 -1      1725 1.34711E+01-8.98626E+01-1.12232E+00
 -1      1726 1.30367E+01-9.15679E+01-1.18452E+00
 -1      1727 1.21772E+01-9.02017E+01-1.09421E+00
 -1      1728 1.60544E+01-4.51546E+01-3.90665E-01
 -1      1729 1.54642E+01-4.38257E+01-3.58547E-01
 -1      1730 1.35927E+01-4.64396E+01-4.61389E-01
 -1      1731 1.30865E+01-4.51023E+01-4.28235E-01
 -1      1732 1.42075E+01-2.72543E+01-1.58665E-01
 -1      1733 1.53007E+01-3.22351E+01-1.80797E-01
 -1      1734 1.49429E+01-3.04334E+01-4.90144E-01
 -1      1735 1.36842E+01-8.90561E+01-1.02767E+00
 -1      1736 1.37012E+01-8.92233E+01-9.47197E-01
 -1      1737 1.35002E+01-8.99888E+01-1.04048E+00
 -1      1738 1.63467E+01-6.77883E+01-5.89845E-01
 -1      1739 1.59108E+01-7.18007E+01-7.51110E-01
 -1      1740 1.63095E+01-6.77588E+01-7.13705E-01
 -1      1741 6.46227E+00-3.63304E+01-4.59167E-01
 -1      1742 6.54426E+00-3.75531E+01-5.24478E-01
 -1      1743 6.36807E+00-3.31266E+01-5.09219E-01
 -1      1744 6.43883E+00-3.42201E+01-5.70582E-01
 -1      1745-4.46105E-01-9.14051E+01-9.18196E-01
 -1      1746-6.19406E-02-5.55489E-02 1.34356E-02
 -1      1747-9.49864E-04-3.07712E-03-1.11044E-03
 -1      1748-2.83555E-04-6.83670E-03-2.29281E-03
 -1      1749-9.78858E-04-3.77382E-03-1.24989E-03
 -1      1750-5.82310E-04-7.58748E-03-2.48962E-03
 -1      1751-1.18274E+00-9.09797E+01-5.41293E-01
 -1      1752-1.42315E+00-8.86094E+01-4.99346E-01
 -1      1753-1.41453E+00-8.90108E+01-4.49153E-01
 -1      1754-1.65534E-02-3.97951E-02-1.65348E-02
 -1      1755 6.52731E-05-1.91568E-03-3.92464E-04
 -1      1756-2.32548E-02-3.95180E-02-2.08025E-02
 -1      1757-3.43972E-03 1.50791E-03 9.21731E-04
 -1      1758-1.08560E-03 2.74786E-04 1.52126E-03
 -1      1759 3.08650E-04-1.48281E-03-2.46532E-03
 -1      1760-1.34761E-03 1.06830E-03 1.63537E-04
 -1      1761-5.20382E-04 1.20300E-03-2.81566E-04
 -1      1762-1.98173E+00-1.48235E+01-6.08587E-02
 -1      1763-7.53544E-02-1.58634E+01-2.88554E-02
 -1      1764 3.63428E-01-1.12599E+01-4.11991E-03
 -1      1765 2.18086E+00-1.22623E+01 1.84902E-02
 -1      1766 1.90000E+01-4.63071E+01-6.55690E-01
 -1      1767 1.20339E+01-6.95565E+01-7.42080E-01
 -1      1768 8.54731E+00-6.76605E+01-8.45829E-01
 -1      1769 1.29074E+01-6.59194E+01-6.83054E-01
 -1      1770 5.71737E-03-4.95517E-03-4.39004E-03
 -1      1771 9.24493E+00-4.73656E+01-5.07512E-01
 -1      1772 1.32413E+01-4.79035E+01-5.20745E-01
 -1      1773 1.06275E+01-4.36636E+01-4.38984E-01
 -1      1774 6.85997E+00-4.59143E+01-5.06987E-01
 -1      1775 6.65637E+00-4.15413E+01-4.87212E-01
 -1      1776 6.76151E+00-4.24989E+01-5.78212E-01
 -1      1777-3.37022E+00-9.14102E+01-4.48567E-01
 -1      1778-3.81694E+00-9.20400E+01-5.11614E-01
 -1      1779-3.69721E+00-9.21583E+01-5.19114E-01
 -1      1780-4.01661E+00-9.25467E+01-6.51103E-01
 -1      1781 1.71521E-01-6.97832E-01-5.77510E-03
 -1      1782 1.06111E-02 6.28558E-03 3.81372E-02
 -1      1783-1.27164E-02 1.38040E-02 7.25898E-03
 -1      1784 7.32364E+00-5.26018E+01-7.27410E-01
 -1      1785 7.62251E+00-5.67070E+01-7.64564E-01
 -1      1786 7.51854E+00-5.55716E+01-6.42264E-01
 -1      1787 3.05600E+00-5.54601E+01-2.12088E-01
 -1      1788 2.99319E+00-5.00170E+01-1.77298E-01
 -1      1789 3.02120E+00-4.99520E+01-1.91514E-01
 -1      1790 2.94189E+00-4.45747E+01-1.58943E-01
 -1      1791 1.03411E+01-8.47727E+01-9.49358E-01
 -1      1792 2.52941E+00-8.54394E+01-3.99747E-01
 -1      1793 8.22854E-03 1.01761E-02-3.62976E-04
 -1      1794 2.20772E-01-4.56412E-02 4.38528E-02
 -1      1795 3.09655E+00-5.97782E+01-2.32651E-01
 -1      1796 6.41454E-01-5.62699E+01-2.64138E-01
 -1      1797 1.59262E+01-7.20722E+01-6.38139E-01
 -1      1798 1.22116E+01-8.74596E+01-9.80812E-01
 -1      1799 1.43085E+01-8.56467E+01-8.49472E-01
 -1      1800-2.79342E-04 5.22933E-03 2.28884E-03
 -1      1801-3.45021E-04 7.45820E-04 6.79891E-04
 -1      1802 1.90000E+01-4.62981E+01-6.54822E-01
 -1      1803-3.35699E-03 4.99444E-02 2.99799E-02
 -1      1804-3.42990E-02 5.87462E-02 5.50704E-02
 -1      1805-9.63092E-03 2.59715E-02 1.33093E-02
 -1      1806-2.67536E-01-1.14261E-01-4.40843E-02
 -1      1807-2.28004E-01-1.01100E-01-3.28515E-03
 -1      1808-3.19599E-01-1.19155E-01 5.52798E-03
 -1      1809-1.90623E-01-9.53395E-02 3.81091E-02
 -1      1810-3.29443E+00-9.22206E+01-5.84451E-01
 -1      1811-3.20986E+00-9.14249E+01-5.61917E-01
 -1      1812-2.31760E+00-9.22390E+01-5.65470E-01
 -1      1813 1.23382E+01-9.27813E+01-1.28149E+00
 -1      1814 1.23891E+01-9.27500E+01-1.38193E+00
 -1      1815 1.24876E+01-9.24975E+01-1.42386E+00
 -1      1816-2.01944E-02 1.25408E-02-1.32110E-02
 -1      1817 1.63361E-03 5.87504E-03-2.75664E-03
 -1      1818 9.19650E+00-9.15141E+01-1.24535E+00
 -1      1819 8.33529E+00-9.14680E+01-1.22919E+00
 -1      1820 9.75972E+00-9.15940E+01-1.29070E+00
 -1      1821 3.07809E+00-6.44103E+01-2.49761E-01
 -1      1822 3.06710E+00-6.01137E+01-2.31503E-01
 -1      1823 6.23087E-01-8.66736E+01-3.67077E-01
 -1      1824-1.69412E+00-8.61286E+01-3.90588E-01
 -1      1825 1.61968E+01-4.79099E+01-5.45737E-01
 -1      1826 1.57401E+01-4.93360E+01-6.06636E-01
 -1      1827 8.42158E+00-9.32114E+01-1.13188E+00
 -1      1828 9.84725E+00-9.31116E+01-1.17324E+00
 -1      1829 9.82582E+00-9.22728E+01-1.22490E+00
 -1      1830 2.87369E+00-3.82135E+01-1.43126E-01
 -1      1831-2.39235E+00-4.24739E+01-1.96290E-01
 -1      1832-5.25274E-02-3.43312E+01-1.14240E-01
 -1      1833 1.09680E+01-9.17448E+01-1.33146E+00
 -1      1834-3.10101E+00-9.28621E+01-5.97017E-01
 -1      1835 1.10086E+01-9.24340E+01-1.23815E+00
 -1      1836-2.32548E+00-9.11559E+01-5.34518E-01
 -1      1837 1.47403E+01-4.13994E+01-2.99906E-01
 -1      1838-1.81137E-01-9.18585E-02-3.41826E-02
 -1      1839-4.09910E+00-9.18708E+01-7.60153E-01
 -1      1840-2.61767E+00-9.15834E+01-8.27887E-01
 -1      1841-3.64408E+00-9.22091E+01-7.15798E-01
 -1      1842 1.23200E+01-9.24278E+01-1.23016E+00
 -1      1843 1.15164E+01-9.15249E+01-1.10174E+00
 -1      1844 1.18476E+01-9.23142E+01-1.21952E+00
 -1      1845 1.14812E+01-9.12388E+01-1.14269E+00
 -1      1846 1.18779E+01-9.24725E+01-1.18674E+00
 -1      1847 2.32817E+00 3.22074E-01 9.79989E-02
 -1      1848 2.92239E+00 1.63669E-02 1.52662E-01
 -1      1849 2.24019E+00 2.71213E-01 2.04223E-02
 -1      1850 2.89804E+00-1.75954E-02 9.14183E-02
 -1      1851 1.69403E-01-1.77829E-02 1.00337E-01
 -1      1852 6.39631E-02 9.41633E-02 3.27959E-02
 -1      1853 8.12281E+00-6.28431E+01-8.07632E-01
 -1      1854 1.19480E+01-5.94928E+01-6.63887E-01
 -1      1855 4.05598E+00-5.37107E+00-1.51654E-01
 -1      1856 3.36282E+00-2.21751E+00-8.24367E-02
 -1      1857 3.55386E+00-2.89336E+00-2.06089E-01
 -1      1858-3.26612E-02 3.77086E-02 6.92240E-03
 -1      1859-9.78072E-04 1.72863E-02 1.09194E-02
 -1      1860 1.90000E+01-4.63001E+01-6.50697E-01
 -1      1861 1.90000E+01-4.62948E+01-6.51619E-01
 -1      1862 1.90320E+01-4.63383E+01-5.65709E-01
 -1      1863 1.90065E+01-4.62866E+01-5.63984E-01
 -1      1864 1.89952E+01-4.63016E+01-5.80173E-01
 -1      1865-1.13097E+00-3.19246E+00 1.33054E-02
 -1      1866-1.45318E+00-5.75698E+00 1.43236E-03
 -1      1867 1.90000E+01-4.63051E+01-6.51566E-01
 -1      1868-1.55509E+00-9.31994E+01-5.36254E-01
 -1      1869 4.40773E-02-9.33775E+01-4.85448E-01
 -1      1870-1.01691E-01-2.10954E-02-4.55176E-02
 -1      1871 1.90000E+01-4.62928E+01-6.55743E-01
 -1      1872 1.54711E+01-5.80368E+01-5.45969E-01
 -1      1873-1.95052E+00-1.41539E+01-3.28234E-02
 -1      1874-1.98094E+00-1.53372E+01-2.12753E-02
 -1      1875-1.72325E+00-9.33694E+00-1.40960E-02
 -1      1876-1.78400E+00-1.03797E+01 1.09186E-02
 -1      1877 1.21725E+01-9.27065E+01-1.36584E+00
 -1      1878 7.21199E+00-5.09704E+01-6.32683E-01
 -1      1879 7.36850E+00-5.40647E+01-5.42541E-01
 -1      1880 7.10294E+00-5.01547E+01-5.26783E-01
 -1      1881 8.38882E+00-6.62730E+01-7.18882E-01
 -1      1882 1.31197E+01-9.16245E+01-1.05079E+00
 -1      1883 1.24673E+01-9.12095E+01-1.08265E+00
 -1      1884 1.17646E+01-9.20733E+01-1.25684E+00
 -1      1885 3.42538E-01 1.40358E-01-1.02653E-01
 -1      1886 9.88115E-01 3.86542E-01-1.86666E-01
 -1      1887 9.44870E-01 3.91845E-01-1.99405E-01
 -1      1888 6.74968E-01 3.46375E-01-1.48602E-01
 -1      1889 2.13387E+00-1.10709E+01-4.24251E-02
 -1      1890 1.79654E+00-6.57591E+00-4.81229E-02
 -1      1891 2.05637E+00-1.00313E+01-2.70233E-03
 -1      1892 9.01298E-02-1.67006E-01 1.02704E-02
 -1      1893 1.90000E+01-4.63021E+01-6.54822E-01
 -1      1894-1.15889E-03-4.49068E-03-6.17123E-04
 -1      1895-1.46566E-03-9.56777E-03-1.99932E-03
 -1      1896-1.13434E-03-9.55353E-03-1.04676E-03
 -1      1897-3.47891E-04-7.48036E-03 1.76399E-03
 -1      1898 1.17811E+01-9.28259E+01-1.28056E+00
 -1      1899 5.67638E+00-2.05168E+01-3.40069E-01
 -1      1900 5.98093E+00-2.55832E+01-3.85311E-01
 -1      1901 5.82710E+00-2.24512E+01-4.33258E-01
 -1      1902 6.58174E-01-8.50545E+01-4.13914E-01
 -1      1903 2.57569E+00-8.52433E+01-3.12814E-01
 -1      1904 6.44073E-01-8.82613E+01-4.42916E-01
 -1      1905 2.30502E+00-8.83851E+01-3.34790E-01
 -1      1906 1.28762E+01-2.17411E+01-1.22655E-01
 -1      1907 1.17850E+01-1.76140E+01-3.84740E-01
 -1      1908 1.14772E+01-1.66097E+01-8.21364E-02
 -1      1909-1.60992E-02 1.83188E-02 6.24799E-03
 -1      1910 5.12588E+00-9.32174E+01-1.04489E+00
 -1      1911 9.67094E+00-7.91717E+01-8.77246E-01
 -1      1912 9.48401E+00-7.78541E+01-7.58185E-01
 -1      1913 2.69453E+00-9.32027E+01-9.59694E-01
 -1      1914 5.51682E+00-9.32403E+01-1.05560E+00
 -1      1915 3.12268E+00-9.32625E+01-9.83293E-01
 -1      1916 1.81859E-03-1.87490E-02-4.31238E-03
 -1      1917 4.61438E-03-1.72576E-02-4.55637E-03
 -1      1918 5.75712E-03-3.23656E-02-6.52612E-05
 -1      1919 1.60179E-02-1.85313E-01 1.89750E-03
 -1      1920-2.73849E-01-1.18940E-01 5.22348E-02
 -1      1921-1.31219E-02 9.58787E-03 1.11998E-02
 -1      1922-4.35131E+00-9.20920E+01-5.60414E-01
 -1      1923-4.45040E+00-9.21737E+01-6.92982E-01
 -1      1924-4.38910E+00-9.21550E+01-6.35852E-01
 -1      1925 6.05042E+00-2.65013E+01-4.49569E-01
 -1      1926 5.90549E+00-2.32256E+01-4.99722E-01
 -1      1927 6.17543E+00-2.82878E+01-5.33363E-01
 -1      1928 4.46911E-01 1.17051E-01-2.80673E-02
 -1      1929 1.77226E-01-3.94598E-02-9.06805E-02
 -1      1930 9.14876E-02 9.38542E-02 3.40196E-02
 -1      1931 9.98334E+00-8.22021E+01-8.27573E-01
 -1      1932 5.18879E+00-3.47894E+00-8.24284E-03
 -1      1933-2.61550E+00-9.30383E+01-4.80528E-01
 -1      1934-1.72979E+00-8.53584E+01-4.73543E-01
 -1      1935-3.75093E+00-9.18133E+01-7.37964E-01
 -1      1936-4.39895E+00-9.22718E+01-5.96287E-01
 -1      1937-4.12944E+00-9.25159E+01-5.51393E-01
 -1      1938-4.38724E+00-9.21945E+01-6.36588E-01
 -1      1939-8.44260E-02-5.54732E-02 4.93721E-02
 -1      1940 2.61881E+00-8.41616E+01-3.44662E-01
 -1      1941 1.24292E+01-9.23774E+01-1.37912E+00
 -1      1942 1.23393E+01-9.26446E+01-1.33341E+00
 -1      1943 1.22894E+01-9.26442E+01-1.37682E+00
 -1      1944 5.42172E-01-9.23623E+01-5.00460E-01
 -1      1945 1.87632E+00-9.23323E+01-3.87878E-01
 -1      1946 9.90592E+00-4.41163E+01-6.73683E-01
 -1      1947 7.02421E+00-4.78450E+01-6.87118E-01
 -1      1948 1.09108E+01-4.75496E+01-6.70371E-01
 -1      1949 1.06673E+01-5.22104E+01-5.81745E-01
 -1      1950 1.29128E+01-4.94654E+01-5.61142E-01
 -1      1951 1.90034E+01-4.63140E+01-5.70476E-01
 -1      1952 1.90360E+01-4.63398E+01-5.62319E-01
 -1      1953 1.89194E+01-4.62488E+01-5.99959E-01
 -1      1954 1.88932E+01-4.62508E+01-5.65026E-01
 -1      1955 4.60522E+00-9.13065E+01-1.09002E+00
 -1      1956 2.52645E-01-5.85798E-02-5.45115E-02
 -1      1957 1.76146E-02 7.92219E-03-1.55821E-02
 -1      1958 1.90347E+01-4.63484E+01-5.27533E-01
 -1      1959 1.18426E+01-5.58209E+01-6.37365E-01
 -1      1960 5.10893E+00-1.79553E+00-1.55355E-01
 -1      1961 4.10747E+00-7.50754E-01 1.33745E-01
 -1      1962 5.08185E+00-1.72500E+00-3.71695E-01
 -1      1963 4.08703E+00-7.61341E-01-7.25083E-02
 -1      1964-1.73910E+00-9.45065E+00-5.38211E-02
 -1      1965 1.52412E+01-5.39550E+01-6.99414E-01
 -1      1966 9.07017E-04 2.15503E-03 1.87921E-03
 -1      1967-2.63124E-05 1.44937E-04 1.33559E-04
 -1      1968 9.47013E-06 2.73721E-04 1.85280E-04
 -1      1969 1.24433E+01-9.23628E+01-1.40140E+00
 -1      1970 1.24822E+01-9.21062E+01-1.43097E+00
 -1      1971 1.07709E+01-8.76297E+01-1.02986E+00
 -1      1972 1.10776E+01-8.96196E+01-1.01117E+00
 -1      1973 1.05483E+01-8.65288E+01-9.17677E-01
 -1      1974 1.19852E+01-9.19879E+01-1.37499E+00
 -1      1975 1.16664E+01-9.18987E+01-1.36698E+00
 -1      1976 1.19422E+01-9.19517E+01-1.34456E+00
 -1      1977 1.15106E+01-9.18491E+01-1.33356E+00
 -1      1978 2.29633E-06-5.82893E-05-1.42857E-05
 -1      1979-1.89901E-05-1.27935E-04-3.31131E-05
 -1      1980-1.42792E-05 4.34613E-06-1.57746E-05
 -1      1981-3.99896E-06-4.32374E-05 3.07286E-06
 -1      1982-1.96960E+00-8.18486E+01-4.19561E-01
 -1      1983-2.25977E+00-7.46574E+01-3.83022E-01
 -1      1984-2.20809E+00-7.71288E+01-3.71253E-01
 -1      1985-4.00900E+00-9.17043E+01-5.44103E-01
 -1      1986-3.95389E+00-9.17318E+01-6.04186E-01
 -1      1987-3.34439E+00-9.14387E+01-5.19413E-01
 -1      1988-4.23815E+00-9.24033E+01-6.11102E-01
 -1      1989-4.32611E+00-9.20617E+01-6.78215E-01
 -1      1990 9.65572E-03-5.10677E+01-2.40403E-01
 -1      1991-2.42819E+00-5.74163E+01-2.84888E-01
 -1      1992 3.98259E+00-1.52550E+00 1.84908E-02
 -1      1993 2.77685E+00-5.83448E-01-2.79363E-02
 -1      1994 1.64624E+01-3.76273E+01-8.40078E-01
 -1      1995 1.69131E+01-4.00427E+01-8.61417E-01
 -1      1996 1.39826E+01-3.84125E+01-7.57365E-01
 -1      1997 1.22468E+01-9.20759E+01-1.40885E+00
 -1      1998 3.07894E+00-6.86043E+01-2.59895E-01
 -1      1999 2.99164E+00-7.53936E+01-2.81953E-01
 -1      2000 3.01810E+00-7.28858E+01-2.87968E-01
 -1      2001 2.21556E+00 2.76038E-01-7.18055E-02
 -1      2002 2.76218E+00-5.64164E-01-1.17290E-01
 -1      2003 1.21647E+01-9.27346E+01-1.29809E+00
 -1      2004 1.42438E+00-3.51784E+00 7.17131E-02
 -1      2005-6.40399E-02-5.50721E+00 1.15316E-03
 -1      2006 1.83266E+00-7.10862E+00 4.76054E-02
 -1      2007 1.22106E+01-9.20576E+01-1.39278E+00
 -1      2008 1.28872E+01-4.23393E+01-3.69063E-01
 -1      2009 1.76367E+01-5.33556E+01-5.24248E-01
 -1      2010 1.74557E+01-5.49404E+01-6.84316E-01
 -1      2011 1.77235E+01-5.18904E+01-6.64650E-01
 -1      2012 1.89027E+01-4.62574E+01-5.12680E-01
 -1      2013 6.81137E+00-4.35420E+01-6.55215E-01
 -1      2014 1.33240E-01 1.05859E-01 3.17227E-02
 -1      2015 3.83906E-01 1.15875E-01 7.62640E-02
 -1      2016 5.49287E-01 1.45767E-01 3.10123E-02
 -1      2017 5.89544E-01-9.06213E+01-4.85270E-01
 -1      2018 9.47567E+00-9.30775E+01-1.20069E+00
 -1      2019 1.08425E+01-9.29388E+01-1.25820E+00
 -1      2020 9.73516E+00-9.30826E+01-1.19295E+00
 -1      2021 1.73520E+01-5.63754E+01-5.98741E-01
 -1      2022 1.71276E+01-5.90227E+01-5.00756E-01
 -1      2023 1.74625E+01-5.48905E+01-4.53570E-01
 -1      2024 1.02326E+01-2.44248E+01-6.00942E-01
 -1      2025 8.07627E+00-1.31682E+01-1.48089E-01
 -1      2026 9.74363E+00-1.11684E+01-2.79684E-02
 -1      2027 4.74034E+00-1.00843E+01-2.23463E-01
 -1      2028 6.38185E+00-8.28322E+00-1.11198E-01
 -1      2029 1.47016E+01-8.21654E+01-9.62678E-01
 -1      2030 1.20892E+01-8.31363E+01-9.16620E-01
 -1      2031 1.26227E+01-8.12724E+01-8.99891E-01
 -1      2032-2.35295E+00-7.10184E+01-3.50343E-01
 -1      2033 6.34585E-02-7.43716E+01-3.15614E-01
 -1      2034 6.27867E-01-6.53856E+01-2.69017E-01
 -1      2035 3.05261E+00-6.87785E+01-2.76581E-01
 -1      2036 1.40647E+01-8.67008E+01-1.04078E+00
 -1      2037 1.23544E+01-9.26256E+01-1.35965E+00
 -1      2038 1.90000E+01-4.62948E+01-6.46968E-01
 -1      2039 1.24509E+01-8.93224E+01-1.07418E+00
 -1      2040-2.99606E-03-3.35742E-03-4.04934E-03
 -1      2041 1.79950E+01-4.81956E+01-5.73231E-01
 -1      2042 2.05472E+00-9.05127E+01-3.71286E-01
 -1      2043 7.63667E+00-5.94857E+00 3.67886E-02
 -1      2044 8.69014E+00-8.34260E+00-2.75452E-01
 -1      2045 1.77302E+01-5.04398E+01-7.00662E-01
 -1      2046-1.12379E+00-9.23008E+01-5.41712E-01
 -1      2047 1.80744E+01-4.81115E+01-5.75699E-01
 -1      2048 4.28474E+00-2.02040E+00-3.21814E-01
 -1      2049 2.87580E-03-1.95966E-02-9.90233E-04
 -1      2050 4.17846E+00-6.00326E+00-2.41418E-01
 -1      2051 3.68636E+00-3.30758E+00-2.99657E-01
 -1      2052 2.26619E+00 2.70971E-01-1.96122E-01
 -1      2053 2.97183E+00-9.45472E-01-2.45436E-01
 -1      2054 6.97153E+00-4.69866E+01-5.88910E-01
 -1      2055-4.33728E+00-9.19985E+01-6.46575E-01
 -1      2056-4.12271E+00-9.17362E+01-5.04116E-01
 -1      2057-4.39493E+00-9.20179E+01-6.02976E-01
 -1      2058 1.28435E+01-2.15254E+01-4.21017E-01
 -1      2059 1.66054E+01-3.83894E+01-6.55640E-01
 -1      2060 1.76807E+01-5.19974E+01-4.31662E-01
 -1      2061 2.24732E+00-8.85283E+01-4.20497E-01
 -1      2062 1.22323E+01-9.26055E+01-1.24779E+00
 -1      2063 1.26220E+01-9.25195E+01-1.24916E+00
 -1      2064-8.21434E-01-1.63152E+00 1.18477E-03
 -1      2065-1.17107E+00-3.31246E+00-5.49854E-02
 -1      2066-2.01624E+00-9.21011E+01-8.11597E-01
 -1      2067-3.14320E+00-9.26762E+01-6.99778E-01
 -1      2068 1.20699E+01-9.23129E+01-1.38345E+00
 -1      2069 9.43739E+00-3.71887E+01-6.39230E-01
 -1      2070 9.25257E+00-3.48437E+01-6.24062E-01
 -1      2071 6.60655E+00-3.84246E+01-6.11601E-01
 -1      2072 8.13653E+00-9.31906E+01-1.13774E+00
 -1      2073 9.19133E-05 1.30916E-04 4.45749E-04
 -1      2074 4.59704E-04 3.02144E-03 1.87179E-03
 -1      2075 1.20426E-04 3.95816E-03 2.61919E-03
 -1      2076 1.66167E+01-3.85720E+01-3.61392E-01
 -1      2077 1.62552E+01-3.69291E+01-1.95190E-01
 -1      2078 1.77830E+01-4.49572E+01-3.81842E-01
 -1      2079-9.74240E-04-3.42321E-03 4.01108E-05
 -1      2080 1.89778E-07-1.49981E-05 1.01959E-05
 -1      2081 1.90000E+01-4.63051E+01-6.46862E-01
 -1      2082 5.74041E-02-6.87589E+01-3.42360E-01
 -1      2083 1.27874E+01-7.52179E+01-7.69296E-01
 -1      2084 8.86673E+00-4.02384E+01-4.33533E-01
 -1      2085 1.25434E+01-3.98174E+01-3.38066E-01
 -1      2086 4.68978E-02-6.09376E+01-2.97796E-01
 -1      2087 1.88316E+01-4.62748E+01-4.94405E-01
 -1      2088 1.90000E+01-4.63051E+01-6.49600E-01
 -1      2089-3.21362E-04-1.19115E-03-4.60387E-04
 -1      2090 1.85232E-03 1.98018E-02 9.43479E-03
 -1      2091 1.90992E-03 9.41503E-03 6.81545E-03
 -1      2092 5.39376E-03 7.70844E-03 5.07765E-03
 -1      2093 1.49611E+00-4.08872E+00 2.81207E-03
 -1      2094 1.15936E+01-3.43397E+01-3.16681E-01
 -1      2095 6.24867E+00-3.10809E+01-4.27721E-01
 -1      2096 9.92876E+00-2.89948E+01-3.13691E-01
 -1      2097 5.79539E+00-2.68730E+00 9.27723E-02
 -1      2098 1.46828E+01-4.39867E+01-7.47269E-01
 -1      2099 1.79660E+01-4.57275E+01-7.07429E-01
 -1      2100 1.75854E+01-4.37892E+01-7.98433E-01
 -1      2101 1.45185E+00-9.13519E+01-9.68974E-01
 -1      2102 1.00910E+01-2.38757E+01-2.48797E-01
 -1      2103 1.62018E+01-4.59354E+01-6.81541E-01
 -1      2104-2.81869E-06-7.68704E-04 2.74962E-04
 -1      2105-2.28362E-03-4.72753E-03-2.99631E-03
 -1      2106-2.23897E-06-1.97549E-04 1.32082E-04
 -1      2107 8.43629E+00-1.84756E+01-2.27079E-01
 -1      2108-2.35649E+00-6.97133E+01-3.60490E-01
 -1      2109 3.03101E-05-3.00188E-04-6.33542E-05
 -1      2110 1.19485E-06-9.38065E-04-2.04340E-04
 -1      2111 3.20281E+00-9.21896E+01-1.00798E+00
 -1      2112 3.41953E+00-9.24095E+01-1.01101E+00
 -1      2113 1.46243E+01-3.85281E+01-2.65388E-01
 -1      2114-4.43106E+00-9.20271E+01-5.47780E-01
 -1      2115 1.49069E+01-8.08499E+01-8.61339E-01
 -1      2116 1.49204E+01-8.10983E+01-7.63554E-01
 -1      2117 1.54197E+01-7.68515E+01-6.97154E-01
 -1      2118 6.13026E-05-9.25333E-04 6.01502E-04
 -1      2119-8.00002E-02-5.33189E-02-4.96480E-02
 -1      2120 1.21186E+01-7.88905E+01-8.36651E-01
 -1      2121-1.15542E-03 1.03792E-02 2.39727E-04
 -1      2122 1.47259E+01-8.23490E+01-8.64711E-01
 -1      2123-3.25968E-05-2.54737E-04-5.40917E-05
 -1      2124 2.78716E+00-8.11787E+01-2.97611E-01
 -1      2125 2.89060E+00-7.80674E+01-3.17458E-01
 -1      2126 2.69428E+00-2.80232E+01-9.66626E-02
 -1      2127 8.40946E+00-9.22428E+01-1.18876E+00
 -1      2128-4.98409E-04 8.19605E-04 5.82967E-04
 -1      2129-3.48340E+00-9.27894E+01-5.04257E-01
 -1      2130-4.02360E+00-9.22127E+01-6.06038E-01
 -1      2131 1.58770E+01-3.47338E+01-7.96605E-01
 -1      2132 1.36407E+01-3.60383E+01-7.39483E-01
 -1      2133-6.66048E-03-4.03381E+01-1.79472E-01
 -1      2134-2.30906E+00-3.54793E+01-1.38274E-01
 -1      2135 5.37427E-01-3.33931E+01-1.38842E-01
 -1      2136-5.13912E-02-8.09782E+00-1.70721E-02
 -1      2137 6.55216E-03-9.96068E-03 4.44342E-03
 -1      2138 5.09379E-01 7.74369E-02 1.41699E-01
 -1      2139-2.75215E+00-9.19793E+01-4.36808E-01
 -1      2140 1.72867E+01-4.16888E+01-7.22902E-01
 -1      2141 1.69229E+01-3.99638E+01-5.21217E-01
 -1      2142 1.90000E+01-4.62998E+01-6.43134E-01
 -1      2143 4.72394E-03-5.94303E-03 4.36743E-03
 -1      2144 8.96274E-03-6.55882E-03-4.36405E-03
 -1      2145 1.74950E+01-5.35313E+01-7.51366E-01
 -1      2146 3.99103E-01-1.35100E+01-4.27977E-02
 -1      2147 2.21435E-01-1.97264E+00 2.23538E-02
 -1      2148 1.53492E+01-5.08638E+01-6.48674E-01
 -1      2149 1.10209E+01-3.88879E+01-3.70561E-01
 -1      2150 3.96473E-04-1.07326E-03-4.87836E-04
 -1      2151 5.62193E-04-5.19168E-03-4.97666E-04
 -1      2152 5.66091E-01-4.63354E+01-1.73122E-01
 -1      2153-1.81447E-04 9.66070E-04 3.30017E-04
 -1      2154-3.72835E-04-1.30907E-03 7.41103E-05
 -1      2155 1.04756E+01-9.16636E+01-1.29106E+00
 -1      2156 9.99853E+00-9.15681E+01-1.24996E+00
 -1      2157 7.01457E+00-9.13808E+01-1.16929E+00
 -1      2158 2.08711E+00-9.01376E+01-3.94137E-01
 -1      2159 2.46188E+00-8.63741E+01-3.67259E-01
 -1      2160 1.79669E+01-4.96229E+01-5.30773E-01
 -1      2161 1.11774E+01-9.17493E+01-1.28612E+00
 -1      2162 1.15313E+01-9.22594E+01-1.33000E+00
 -1      2163 6.17006E+00-5.93845E+00-4.06137E-01
 -1      2164 4.38654E+00-7.06578E+00-3.55392E-01
 -1      2165 8.69600E+00-8.26735E+00-5.01677E-01
 -1      2166 6.74097E+00-9.52769E+00-4.41102E-01
 -1      2167-9.17840E-04-4.03675E-03-8.99797E-04
 -1      2168-2.12086E+00-2.12027E+01-6.42357E-02
 -1      2169 2.95824E+00-7.56851E+01-3.23707E-01
 -1      2170 1.21322E+01-9.27584E+01-1.26076E+00
 -1      2171-1.42161E-01-4.61119E-02 4.88736E-02
 -1      2172 2.40267E-01-3.78563E+00 1.99510E-02
 -1      2173-1.47486E+00-5.85299E+00-5.41170E-02
 -1      2174-9.08125E-05-3.06873E-04-4.91790E-06
 -1      2175 1.88640E+01-4.62581E+01-6.27925E-01
 -1      2176 1.81135E+01-4.62088E+01-6.70615E-01
 -1      2177 1.80923E+01-4.57359E+01-6.33427E-01
 -1      2178 8.59880E-01-9.24634E+01-9.24326E-01
 -1      2179 1.71360E+00 3.47882E-01-1.67253E-01
 -1      2180-2.43541E+00-5.87179E+01-2.95389E-01
 -1      2181-2.42484E+00-5.28707E+01-2.56985E-01
 -1      2182-2.44455E+00-5.41336E+01-2.66153E-01
 -1      2183 1.77262E+01-4.35735E+01-5.96128E-01
 -1      2184 1.90201E+01-4.62995E+01-5.68087E-01
 -1      2185 1.90113E+01-4.63089E+01-5.69568E-01
 -1      2186-1.71692E+00-8.57097E+01-4.22835E-01
 -1      2187-3.68624E+00-9.26810E+01-5.83837E-01
 -1      2188-2.64450E+00-9.29895E+01-5.21080E-01
 -1      2189-5.82713E-06-9.77549E-05-1.39276E-05
 -1      2190-2.81939E-05-1.59059E-04 2.14850E-05
 -1      2191 4.19507E-04 2.98568E-03-7.62956E-05
 -1      2192 1.79173E+01-4.49969E+01-4.44070E-01
 -1      2193 1.77266E+01-4.35773E+01-4.92188E-01
 -1      2194 7.64602E+00-5.97567E+00-1.82889E-01
 -1      2195 1.04342E+00 2.04137E-01 1.45960E-01
 -1      2196 1.74446E+00 3.45230E-01-1.56073E-03
 -1      2197 1.75065E+00 3.18550E-01 1.44079E-01
 -1      2198 1.22372E+00 2.17263E-01-1.20200E-03
 -1      2199 1.06182E+00 1.93342E-01-1.52777E-01
 -1      2200 1.22362E+00 4.12263E-01 1.45296E-01
 -1      2201 1.22614E+01-9.27295E+01-1.36201E+00
 -1      2202 1.90000E+01-4.63053E+01-5.85035E-01
 -1      2203 1.90000E+01-4.63052E+01-5.88215E-01
 -1      2204 1.90000E+01-4.63056E+01-5.79258E-01
 -1      2205 1.89999E+01-4.63000E+01-5.82685E-01
 -1      2206 1.79635E+01-4.85703E+01-5.57210E-01
 -1      2207 1.81939E+01-4.61863E+01-6.31541E-01
 -1      2208-1.31691E+00-9.32233E+01-4.96555E-01
 -1      2209 1.58014E+01-4.74122E+01-6.18102E-01
 -1      2210 1.91223E-02 1.00218E-02 5.96000E-03
 -1      2211 1.82360E+01-5.04302E+01-5.88379E-01
 -1      2212 1.78488E+01-4.80056E+01-5.75120E-01
 -1      2213 1.77402E+01-4.94955E+01-5.49978E-01
 -1      2214 9.86410E-01 4.79770E-01-7.51285E-02
 -1      2215 9.50444E-01 4.72811E-01-1.01746E-01
 -1      2216 1.28299E+00 5.93421E-01-3.36453E-02
 -1      2217 9.95305E-01 4.80402E-01 6.53057E-02
 -1      2218 3.41413E-01 1.90485E-01 2.26174E-02
 -1      2219-4.26699E+00-9.21786E+01-6.86113E-01
 -1      2220 1.24707E+01-9.21118E+01-1.39455E+00
 -1      2221-4.27588E+00-9.23573E+01-6.92473E-01
 -1      2222 1.86479E+01-4.65873E+01-5.46544E-01
 -1      2223 1.98593E+00-9.06809E+01-4.29923E-01
 -1      2224 1.09618E+01-9.29614E+01-1.23244E+00
 -1      2225 6.74205E-01 3.52488E-01 1.43508E-01
 -1      2226 1.25122E+00 5.87725E-01 1.51893E-01
 -1      2227 1.75491E+00 6.06846E-01 8.17625E-02
 -1      2228 1.86497E+01-4.65738E+01-5.82622E-01
 -1      2229 1.80570E+01-4.55399E+01-4.65831E-01
 -1      2230 1.79303E+01-4.55158E+01-4.17202E-01
 -1      2231 1.53400E-04 4.67918E-04 5.17810E-04
 -1      2232 5.67102E-04 2.12718E-03 1.55333E-03
 -1      2233 1.16330E+01-9.28082E+01-1.30559E+00
 -1      2234 1.00471E+01-1.19048E+01-5.52750E-01
 -1      2235 1.47469E-04-4.93624E-04-1.44442E-04
 -1      2236 1.42157E+01-4.02083E+01-7.72645E-01
 -1      2237 2.53713E-02 1.32964E-02-4.69696E-03
 -1      2238 2.20240E-02 1.04268E-02 2.31023E-03
 -1      2239 2.37344E-03 1.43179E-03 1.78956E-05
 -1      2240 1.68339E-02 3.00911E-03-6.50235E-03
 -1      2241 1.73418E-03 6.50973E-03 4.74143E-03
 -1      2242 1.30841E+01-9.16098E+01-1.11041E+00
 -1      2243 1.28594E+01-3.12166E+01-6.89577E-01
 -1      2244 9.79913E+00-4.22180E+01-6.74449E-01
 -1      2245 1.62734E+01-3.68146E+01-4.74800E-01
 -1      2246 1.01788E+01-3.05708E+01-6.24823E-01
 -1      2247 1.00432E+01-1.19933E+01-3.22933E-01
 -1      2248 6.93428E+00-4.50597E+00-4.31947E-01
 -1      2249 1.90000E+01-4.62998E+01-6.35641E-01
 -1      2250 4.90672E+00-2.79289E+00-3.49806E-01
 -1      2251 1.90000E+01-4.62998E+01-6.32843E-01
 -1      2252-2.39360E+00-6.52601E+01-3.44343E-01
 -1      2253-2.44096E+00-6.31674E+01-3.17138E-01
 -1      2254 1.12068E+01-8.99313E+01-1.16119E+00
 -1      2255 1.04333E+01-9.23824E+01-1.26377E+00
 -1      2256 2.04178E-03 5.64782E-03 3.61182E-03
 -1      2257-3.03969E-06 1.47819E-04-4.43332E-05
 -1      2258 5.15320E-01 3.46827E-02-1.45270E-01
 -1      2259 8.41302E-01 2.09689E-01-1.82389E-01
 -1      2260 3.20056E-01 6.12741E-02-1.03119E-01
 -1      2261 2.71330E-01 3.48835E-02-1.07568E-01
 -1      2262 8.01569E-01 2.01505E-01-1.73013E-01
 -1      2263 1.77656E+01-4.54175E+01-4.86829E-01
 -1      2264 1.85768E+01-4.61819E+01-5.40353E-01
 -1      2265 1.75986E+01-4.40030E+01-5.40300E-01
 -1      2266-4.18783E-02-2.01946E+01-6.98458E-02
 -1      2267-2.38348E+00-4.60158E+01-2.09497E-01
 -1      2268 1.90000E+01-4.62999E+01-6.00575E-01
 -1      2269 1.90000E+01-4.62999E+01-5.93988E-01
 -1      2270 1.90000E+01-4.62925E+01-5.95682E-01
 -1      2271 1.90000E+01-4.63029E+01-6.02560E-01
 -1      2272 1.90000E+01-4.63029E+01-5.95963E-01
 -1      2273 1.85483E+00-9.22065E+01-4.50400E-01
 -1      2274-2.27560E+00-3.11077E+01-1.16416E-01
 -1      2275 1.79063E+01-4.60909E+01-6.11018E-01
 -1      2276 1.86011E+01-4.61651E+01-5.80238E-01
 -1      2277-4.19488E+00-9.19865E+01-6.66812E-01
 -1      2278 1.90000E+01-4.62925E+01-6.02126E-01
 -1      2279 1.90000E+01-4.62925E+01-5.92084E-01
 -1      2280 1.90000E+01-4.62925E+01-6.02127E-01
 -1      2281 5.71928E-01 2.01624E-01 1.51754E-01
 -1      2282 2.82982E-02 1.83540E-02 5.30465E-03
 -1      2283-4.15494E+00-9.23992E+01-6.25399E-01
 -1      2284-4.24684E+00-9.23580E+01-6.49935E-01
 -1      2285 5.75542E+00-9.32750E+01-1.06297E+00
 -1      2286 1.13116E+00-9.16995E+01-9.47026E-01
 -1      2287-2.06837E+00-9.24557E+01-8.09666E-01
 -1      2288 2.79237E-01-9.26474E+01-9.01562E-01
 -1      2289-2.72876E+00-9.20030E+01-7.76023E-01
 -1      2290 1.99796E+00-9.09194E+01-4.10248E-01
 -1      2291-8.25927E-01-9.29554E+01-8.14959E-01
 -1      2292 1.24301E+00 4.14440E-01-1.83757E-01
 -1      2293-2.32568E+00-3.59007E+01-1.49007E-01
 -1      2294 1.77503E+00 5.79444E-01-6.17924E-02
 -1      2295-8.25554E-06 1.71873E-05-2.79220E-05
 -1      2296-2.18471E+00-2.52670E+01-7.37767E-02
 -1      2297-2.10413E+00-9.15614E+01-8.34745E-01
 -1      2298-3.40042E+00-9.17491E+01-7.33043E-01
 -1      2299 2.66291E-04 1.74076E-04 2.35017E-04
 -1      2300 1.90038E+01-4.62937E+01-5.68546E-01
 -1      2301 1.89999E+01-4.62906E+01-5.67874E-01
 -1      2302 1.90005E+01-4.62979E+01-5.76664E-01
 -1      2303 1.89999E+01-4.62936E+01-5.80243E-01
 -1      2304 1.89997E+01-4.62935E+01-5.77504E-01
 -1      2305 1.90001E+01-4.62951E+01-5.84514E-01
 -1      2306 1.90000E+01-4.62999E+01-5.96964E-01
 -1      2307 1.90000E+01-4.62999E+01-6.07035E-01
 -1      2308 1.90000E+01-4.62999E+01-6.13396E-01
 -1      2309 3.21360E-01 1.77876E-01-3.73734E-02
 -1      2310 8.97339E-01 4.52025E-01 7.21567E-02
 -1      2311 1.90000E+01-4.62998E+01-6.27994E-01
 -1      2312 1.90000E+01-4.62998E+01-6.23544E-01
 -1      2313 1.90000E+01-4.62948E+01-6.49653E-01
 -1      2314 1.89961E+01-4.63091E+01-5.79259E-01
 -1      2315 1.90015E+01-4.63121E+01-5.77100E-01
 -1      2316 1.89999E+01-4.63054E+01-5.81542E-01
 -1      2317 3.08647E-01 1.21852E-01-1.14007E-01
 -1      2318 1.90000E+01-4.62999E+01-5.90457E-01
 -1      2319 1.90000E+01-4.63051E+01-6.23521E-01
 -1      2320 1.90000E+01-4.63051E+01-6.13350E-01
 -1      2321 1.90000E+01-4.62948E+01-6.19348E-01
 -1      2322 1.90000E+01-4.63051E+01-6.19066E-01
 -1      2323 3.47928E-01 1.88681E-01-4.35591E-02
 -1      2324 3.15962E-01 1.79488E-01 4.35378E-02
 -1      2325-3.51816E+00-9.26573E+01-7.36873E-01
 -1      2326-3.35103E+00-9.26594E+01-7.12558E-01
 -1      2327-3.41624E+00-9.22725E+01-7.41305E-01
 -1      2328-2.30430E+00-9.18460E+01-7.97225E-01
 -1      2329 1.90000E+01-4.62948E+01-6.23789E-01
 -1      2330 1.90000E+01-4.63051E+01-6.23521E-01
 -1      2331 1.90000E+01-4.62999E+01-6.13397E-01
 -1      2332 1.90000E+01-4.63051E+01-6.13348E-01
 -1      2333 1.90000E+01-4.62999E+01-5.90446E-01
 -1      2334-6.91989E-01-9.30262E+01-8.60514E-01
 -1      2335-1.13091E+00-9.29487E+01-8.19528E-01
 -1      2336-2.86705E+00-9.24801E+01-7.72197E-01
 -1      2337 9.78439E-04-5.78968E+01-2.41351E-01
 -1      2338 1.90000E+01-4.63028E+01-5.92406E-01
 -1      2339-5.33423E-01-9.14821E+01-8.83686E-01
 -3
    1PSTEP                         2           1           1          
  100CL  101 1.000000000        2339                     0    1           1
 -4  STRESS      6    1
 -5  SXX         1    4    1    1
 -5  SYY         1    4    2    2
 -5  SZZ         1    4    3    3
 -5  SXY         1    4    1    2
 -5  SYZ         1    4    2    3
 -5  SZX         1    4    3    1
 -1         1-1.84229E+03-1.68078E+02-3.04344E+01 3.71789E+02 1.57354E+02-8.26730E+02
 -1         2 6.22293E+02 1.66236E+02 4.95412E+01 1.06707E+02 5.78487E+00 1.89112E+02
 -1         3 4.11244E+02 2.41355E+02-5.28614E-03-1.94339E+02 3.82513E+01-1.47742E+02
 -1         4-6.52216E+02-6.07076E+02-8.74810E+00-1.73169E+02 1.89322E+02 1.85896E+02
 -1         5-2.99995E+03-1.95097E+02-2.07061E+02-1.00712E+02-2.44792E+02 8.24075E+02
 -1         6 8.56966E+02 2.09623E+02 1.14105E+02-2.13599E+01 1.75965E+01-2.87549E+02
 -1         7 3.38784E+02 1.45387E+02-8.82137E+01-9.38136E+01-4.17389E+01 1.20113E+02
 -1         8-5.24692E+02-4.27566E+02 3.91888E+01-1.89013E+02-1.45249E+02-1.11366E+02
 -1         9-4.94055E+02-1.29267E+02-1.35762E+02-1.16636E+02-2.18957E+01-3.42108E+01
 -1        10-6.14091E+02-1.60080E+02-1.47311E+02-1.34628E+02 1.05804E+00 4.65385E+01
 -1        11 7.06517E+01 8.98194E+01-3.83649E+01-1.94562E+02-7.51949E+01-7.89990E+01
 -1        12 1.34789E+02 1.16064E+02-6.57072E+01-3.02194E+02 1.12126E+02 2.90534E+01
 -1        13-2.17895E+03-3.96955E+02-2.88190E+02-2.05207E+02 1.29419E+02 9.62680E+01
 -1        14-1.89289E+03-2.42651E+02-2.61178E+02-1.29360E+02-9.02825E+01-5.15786E+01
 -1        15-1.13425E+02-7.88372E+01 2.69545E+01-6.70397E+01-5.37736E+01 2.46763E+01
 -1        16-7.28605E+01-6.09897E+01 4.08373E+01-1.46541E+02 5.36828E+01-6.97014E+01
 -1        17 1.59943E-04-1.00399E-03-9.31398E-04 3.27721E-05-9.96541E-04-3.80512E-06
 -1        18 7.08092E-05-7.82616E-04-7.10129E-04-3.22560E-05-8.28084E-04 2.21601E-05
 -1        19-1.75784E-04 1.77652E-04 1.61134E-04 1.66517E-05-1.09186E-04 5.30164E-06
 -1        20-2.42125E-07 1.47495E-04 1.37881E-04 2.80098E-06-1.44183E-04-3.68794E-06
 -1        21-6.37601E+02-7.25292E+02-8.25129E+01 3.22430E+00 1.24012E+02 1.56265E+02
 -1        22 9.89902E+02 2.73525E+02 1.62518E+02 1.70829E+02-2.70986E+01 1.80096E+02
 -1        23-2.22285E+03-2.87129E+01-3.76311E+01 1.98942E+02 2.38492E+01-4.17319E+02
 -1        24-4.87482E+03 4.32761E+03 8.40922E+02 4.48807E+01 8.93414E+01 1.14203E+02
 -1        25-2.19856E+03-2.32740E+03-7.25305E+02-2.79593E+03-8.72241E+00 1.32025E+03
 -1        26 4.88287E+02 3.25912E+02 3.82062E+01 4.43444E+01 7.88525E+00-1.12695E+02
 -1        27-4.61845E+03-3.55408E+03-1.92323E+03-1.71899E+03 6.42843E+01-1.14779E+03
 -1        28-5.14131E+03 3.06020E+03 3.12337E+02-8.29956E+02 8.88256E+01-7.04671E+01
 -1        29 5.55664E+02 2.97619E+02 2.14186E+01-1.21978E+02-6.02206E+01 1.00328E+02
 -1        30-9.09106E+02-6.70588E+02-1.15235E+02 3.19338E+01-1.94763E+02-1.11711E+02
 -1        31-2.50953E+03-1.36467E+02-6.39367E+01 2.33172E+02-8.36894E+01 5.40835E+02
 -1        32 9.22256E+02 2.88459E+02 1.21198E+02 1.32980E+02 2.18382E+01-1.76570E+02
 -1        33-6.73140E+02-2.44039E+02-2.64740E+02-1.65369E+02-2.91323E+01-1.55648E+01
 -1        34-7.63315E+02-1.83333E+02-2.28868E+02-1.46289E+02 2.25683E+01 2.80430E+01
 -1        35 1.22789E+02 6.73664E+01-1.73153E+02-2.07348E+02-5.38662E+01-4.46885E+01
 -1        36 1.59732E+02 1.75326E+02-1.48352E+02-2.07627E+02 9.82415E+01 6.38048E+01
 -1        37-2.32258E+03-4.22682E+02-5.90973E+02-2.21159E+02 1.42489E+02-1.46593E+02
 -1        38-2.32316E+03-4.23483E+02-3.33400E+02-2.51464E+02 4.08306E+01 3.36746E+01
 -1        39-4.84525E+01-1.10835E+01 1.06391E+02-9.32656E+01-4.48381E+01 4.00288E+01
 -1        40-4.66819E+01-8.01512E+01 1.31003E+02-9.49103E+01 4.42493E+01-5.44118E+01
 -1        41 8.45250E+02 2.60736E+01-5.34244E+00-5.25899E+01-1.23272E+01 4.90198E+01
 -1        42 1.03138E+03 3.39711E+01-7.20321E+00-3.76233E+01-7.18932E+00 3.20866E+01
 -1        43 1.22010E+03 4.41234E+00-1.11189E+01-4.88848E+01-4.77360E+00 3.98385E+01
 -1        44 1.39680E+03-1.42149E+00-4.63846E+00-3.36630E+01-7.23263E+00 3.74388E+01
 -1        45 1.54961E+03 2.35176E+00 7.61812E+00-6.35565E+01-1.57967E+01 6.41309E+01
 -1        46 1.91618E+03 4.79345E+02 1.25382E+02 5.70037E+01-7.62844E+00 2.63641E+02
 -1        47-2.61931E+03-1.22945E+02-8.97983E+01-1.65679E+03-3.46615E+01 4.09266E+02
 -1        48-4.04779E+03-7.55644E+01 4.73280E+01-1.71136E+02 9.12206E+00 1.52228E+02
 -1        49-3.96002E+03-1.08426E+01-1.27399E+01-5.30167E+01 4.64506E+00 4.17541E+01
 -1        50-3.78089E+03-2.82158E-01-3.58177E+00-7.01894E+01 8.28492E+00 5.33700E+01
 -1        51-3.60847E+03-2.47814E+01-8.04992E+00-3.04718E+01-4.25155E+00 2.82100E+01
 -1        52-3.44688E+03-1.93846E+01-6.37665E+00-3.91079E+01 6.59715E+00 2.87994E+01
 -1        53-3.30794E+03-2.05185E+01-9.27850E+01-2.45116E+02 3.80811E+01 6.00243E+01
 -1        54 7.95133E+02-6.61201E+01-3.31111E+01-5.24273E+01 2.02199E+01-4.71224E+01
 -1        55 9.75786E+02 2.32245E+01-1.60554E+01-2.13419E+01 6.64625E+00-5.16698E+01
 -1        56 1.16690E+03 6.86379E+00-9.93908E+00-4.59601E+01 9.17498E+00-4.96437E+01
 -1        57 1.36924E+03 1.01286E+01 5.07780E+00-5.07879E+01 7.87776E+00-4.42428E+01
 -1        58 1.50491E+03 2.02810E+01-6.71564E+00-4.59202E+01 6.16862E+00-4.81337E+01
 -1        59 1.61317E+03 2.40185E+01-2.85997E+01-1.17164E+02 5.64498E+00-1.47253E+02
 -1        60 2.28779E+03 2.68980E+02 3.35499E+02-3.98739E+02-2.22893E+02-4.83386E+02
 -1        61-4.59666E+03 2.33836E+02-2.63320E+02-4.11072E+02 2.08824E+02-5.84166E+02
 -1        62-4.03066E+03-6.47433E+01 4.37442E+01-2.66564E+02-3.42589E+01-2.27608E+02
 -1        63-3.95368E+03 2.08633E+01-1.30011E+01-5.21916E+01-1.23028E+00-5.96189E+01
 -1        64-3.77621E+03 7.54101E+00-3.91062E+00-3.45522E+01-7.25728E-01-5.03067E+01
 -1        65-3.58081E+03 1.94448E+01 4.77425E+00-2.10050E+01 1.21362E+01-3.95214E+01
 -1        66-3.41414E+03-5.87989E-01 1.19289E+01-4.65463E+01 1.43683E+01-5.48774E+01
 -1        67-3.34400E+03-4.92376E+01-9.29411E+00-1.04020E+02-5.42290E+01-5.56859E+01
 -1        68 4.84480E+02 9.76481E+01 1.12742E+02-1.31555E+02-4.12088E+01 1.45432E+02
 -1        69-3.35428E+00 4.71235E+01-1.16154E+01-2.64450E+01 3.21934E+01-9.39907E+00
 -1        70-5.35992E-01 2.32568E+00 3.77415E-01 1.03249E-01 8.66150E-01-3.09096E-01
 -1        71-9.58284E-01 5.21197E+00-7.70348E-01 2.73236E+00-1.48415E+00-1.29971E+00
 -1        72-7.25068E+00 2.67922E+01 1.33739E+01-1.19028E+01 3.62470E+00 8.41183E+00
 -1        73-1.19408E+02 1.14024E+02-9.45808E+01 1.07147E+01-8.36474E+01-6.19066E+01
 -1        74 7.11552E+01 6.76979E+01 4.97368E+01-5.70225E+00-2.10506E+01 8.52706E+00
 -1        75 1.33076E+01 2.49400E+01 8.88057E+00-2.66384E+01-1.29410E+01 8.71434E-01
 -1        76-2.16405E+00 1.27092E+00-7.76870E-01-6.16668E-01-7.51124E-01-1.50578E-01
 -1        77 2.01931E+00 3.76759E+00-5.36735E-01 2.33223E+00 5.60532E-01 6.92920E-01
 -1        78-1.88522E+01 2.54817E+01-7.04550E+00-1.06881E+01-6.82494E+00-9.77511E+00
 -1        79 1.19961E+02 1.59484E+02 2.40105E+01 1.30822E+02 7.19453E+01 2.45267E+01
 -1        80 1.01851E+03-5.95569E+01 1.41824E+01-2.46185E+01 5.44436E+01 5.37466E+01
 -1        81 6.21503E+02 1.79476E+01 2.09860E+01 1.22743E+02 1.90298E+01 9.22767E+01
 -1        82 2.49081E+02 5.66459E+01 2.49866E+01 7.03645E+01 2.16332E+01 5.04762E+01
 -1        83 7.43128E+01-1.69174E+01-1.71088E+00 1.22303E+01-1.13974E+00 1.66219E+01
 -1        84-1.34668E+00-7.08482E+00 1.18431E+01 1.94828E+01 1.99019E+01 3.77350E+01
 -1        85-2.52033E+02-1.26104E+01 2.60271E+01 7.95895E+01 1.17072E+01 4.83113E+01
 -1        86-7.68306E+02-3.07328E+01-9.44284E+00 1.20548E+02-2.19643E+01 6.31758E+01
 -1        87 1.09637E+03 2.60880E+01 2.78053E+01 1.04871E+02-2.95861E+01-7.24602E+01
 -1        88 6.89923E+02 6.70023E+01 2.03321E+00 6.83086E+01-2.69276E+01-6.25159E+01
 -1        89 3.46074E+02-5.67009E+01-5.83922E+00 3.20064E+01-3.80146E+01-8.65222E+01
 -1        90 1.45994E+02-1.99009E+01 2.16256E+01 8.67075E-01-3.95125E+01-3.99829E+01
 -1        91 6.26659E+01 3.04413E+01 2.30201E+01 7.06822E+00-1.82477E+01-3.15852E+01
 -1        92-9.96849E+01 7.21707E-01 1.24296E+01 3.79916E+01-3.22952E+01-8.20250E+01
 -1        93-4.39264E+02-2.99776E+01-7.40465E+00 7.22328E+01-2.03322E+01-1.15595E+02
 -1        94-7.67650E+02 1.31880E+02 4.36729E+01 1.89430E+01 6.35159E+01-7.73238E+01
 -1        95 6.03875E+01-9.45643E+02 2.05789E+01 2.06031E+01 1.19109E+01-3.75261E+01
 -1        96-2.94948E+01-7.26321E+02 1.33897E+01 3.28829E+01 2.93621E+01 1.02319E+00
 -1        97 1.20015E+01-4.60758E+02 4.08186E+00 4.44794E+01 3.02031E+01-3.63649E+00
 -1        98-4.11451E+00-1.59134E+02 2.67804E-01 1.13727E+01 3.44541E+01 3.62775E+00
 -1        99 1.88078E+01 1.82211E+02-3.30279E+00 4.32424E+01 3.89521E+01 6.83415E+00
 -1       100-9.70281E+01 3.93499E+02-3.00850E+01 2.53236E+01 3.10978E+01 4.46580E+01
 -1       101-3.38552E+01-9.37999E+02 2.05337E+01 5.70783E+01-4.92920E+01 2.10166E+01
 -1       102-1.32142E+01-6.91051E+02 2.59953E+01 3.34983E+01-3.27966E+01 1.09796E+00
 -1       103 2.46467E+00-3.75584E+02 4.60975E+00 6.24946E+01-3.23294E+01-5.03980E+00
 -1       104 4.74642E+01-1.57304E+02-9.05322E+00 5.64066E+01-3.90824E+01-2.69749E+00
 -1       105-6.65728E+00 1.40037E+02-5.13147E+00 3.60663E+01-3.81490E+01-2.23317E+00
 -1       106 1.82969E+01 3.99535E+02-3.88394E+00 5.97960E+01-2.70621E+01-1.86002E+01
 -1       107-1.14363E+03 7.27178E+01-5.09866E+01-1.10208E+02 2.13355E+01 9.60655E+01
 -1       108-9.20284E+02-6.84373E+01-1.52691E+01 1.07372E+02 2.80110E+01-8.15258E+01
 -1       109-4.99707E+02-4.14145E+01-4.44603E+00 6.68917E+01 1.65675E+01-7.36315E+01
 -1       110-2.35483E+02-5.79892E+01 4.07734E+00 1.37960E+01-5.73190E+00-2.66011E+01
 -1       111-1.40773E+02-3.90902E+01-1.59980E+00 2.13789E+01-5.98540E+00-2.45232E+01
 -1       112-6.30472E+00-1.06313E+02-1.85781E+01 6.38789E+01 4.29670E+00-5.22423E+01
 -1       113 3.68952E+02-6.02417E+01 1.38075E+01 8.71260E+01-1.45699E+01-6.49655E+01
 -1       114 6.54857E+02 2.98919E+01 3.02041E+01 7.33551E+01-3.64110E+01-4.38525E+01
 -1       115 6.76277E+02-1.11019E+02 1.16456E+02-1.74526E+02-6.20814E+00 1.62975E+02
 -1       116-1.13006E+03 5.07342E+01-1.93757E+01-5.20097E+01-2.76182E+01-1.32423E+01
 -1       117-7.56488E+02 5.55989E+01 1.50099E+01 1.04056E+02 1.55503E+01 1.01079E+02
 -1       118-2.99632E+02 1.36686E+02 5.28327E+01 7.95020E+01 3.97311E+01 8.66579E+01
 -1       119-1.58262E+02 3.93637E+01 1.74590E+01 1.63431E+01 1.40808E+01 3.80337E+01
 -1       120-9.17060E+01-4.70849E+01 3.74916E+00 2.78752E+01 4.75470E+01 6.00300E+01
 -1       121 1.56098E+02-3.86285E+01 2.22822E+01 9.61378E+01 4.50859E+01 1.22242E+02
 -1       122 5.66713E+02 1.16935E+01 3.53144E+01 1.43175E+02 1.98291E+01 1.19275E+02
 -1       123 7.43434E+02-7.63685E+01 1.03159E+02-1.62639E+02-3.84904E+01-1.34972E+02
 -1       124-5.54859E+02 1.15023E+02-2.80771E+01-2.70351E+02-9.87798E+00 1.79841E+02
 -1       125-7.81827E+02 2.00643E+01-6.98772E+00-7.45807E+01-1.58540E+01 4.95798E+01
 -1       126-9.68632E+02 2.04459E+01-7.35429E+00-4.28796E+01-1.47305E+01 4.12358E+01
 -1       127-1.15118E+03 1.52816E+01-8.72782E+00-4.96296E+01-1.94009E+00 5.11957E+01
 -1       128-1.34133E+03 3.18088E+00-1.14617E+01-5.71018E+01 2.67370E+00 4.46067E+01
 -1       129-1.45455E+03-3.08479E+00-9.85066E+00-1.97367E+01 1.38016E+01 1.89567E+01
 -1       130-1.45782E+03 3.98637E+00-4.32593E+01 1.67374E+02 2.53495E+01-8.05535E+01
 -1       131-1.16865E+03-5.45251E+01-1.55171E+01 2.03391E+02-2.46520E+01-1.90297E+02
 -1       132-1.02368E+03-1.14281E+01-3.31939E+00-6.57022E-01 7.25124E-01 3.34249E+00
 -1       133-1.15566E+03 1.12461E+01 7.86392E+00-5.37755E+01-8.95809E+00 5.14534E+01
 -1       134-1.36996E+03 2.01534E+01-4.41365E+00-3.79504E+01-9.82281E+00 4.74606E+01
 -1       135-1.53414E+03 1.05953E+01-5.25562E+00-3.71766E+01 4.20953E+00 4.65609E+01
 -1       136-1.69563E+03 9.97394E+00-3.21804E+01-7.21522E+01-1.41771E+01 7.96407E+01
 -1       137-2.03116E+03 8.74521E+01 1.04973E+02-1.53413E+02 9.10100E-01 2.89302E+02
 -1       138-1.36898E+03-2.67602E+02-2.62338E+01 9.05452E+01-8.05873E+01 1.05575E+02
 -1       139 5.25983E+01-2.09116E+00 3.52483E+01 1.08968E+01 9.31477E+00-2.86087E+01
 -1       140-3.54788E+00 1.76913E+00 3.58695E+00-3.59261E+00 1.96058E+00-1.85649E+00
 -1       141 1.39512E-01 4.03265E-01 2.60746E-01 1.34904E+00 2.71692E-02-6.37411E-01
 -1       142 4.72392E+00 1.83009E+00-1.44070E+00 4.85848E+00-1.41491E+00 2.76055E-01
 -1       143 8.20374E+00 1.92330E+01-1.64672E+01 4.20254E+01-1.31418E+01 5.70678E+00
 -1       144 2.58930E+02 3.24992E+01-2.76227E+01 4.67317E+01-3.41467E+01-1.12023E+00
 -1       145-1.24255E+02 8.32515E+02 7.85783E+01-1.44134E+02-8.87332E+01-2.23359E+01
 -1       146-9.54009E-02 7.09339E+02 8.54520E+00 7.23626E+01 4.90400E+01-2.90979E+00
 -1       147 9.59748E+00 4.57442E+02 1.38969E+01 4.61116E+01 3.46924E+01 1.82315E+00
 -1       148-1.76406E+01 1.93815E+02 1.80648E+01 3.51650E+01 3.89230E+01 4.85608E+00
 -1       149-6.77105E+00-9.81910E+01-9.52917E+00 4.55887E+01 3.89895E+01-1.25473E+01
 -1       150 9.34574E+00-3.68766E+02-3.98053E+00 6.74280E+01 5.06759E+01-4.65894E+00
 -1       151 8.34932E+01-4.56977E+02-5.61086E+01-7.98362E+01-8.41177E+01-3.40317E+00
 -1       152-5.38876E+02 2.86312E+01-5.20830E+01-7.52288E+01 2.07252E+01-1.11180E+02
 -1       153-8.28153E+02-2.09212E-01-1.22974E+01-2.81181E+01-3.95312E-01-3.14095E+01
 -1       154-1.02642E+03 8.79558E+00-7.90087E+00-3.89293E+01-3.40223E+00-3.88482E+01
 -1       155-1.22653E+03 1.23240E+01-6.11330E+00-5.05700E+01-3.59793E+00-4.08684E+01
 -1       156-1.39053E+03 3.24264E+00-9.06619E+00-4.39327E+01-6.32425E+00-3.36448E+01
 -1       157-1.49759E+03 3.67154E+01-3.73736E+01 7.59174E+01-1.74235E+00 3.95943E+01
 -1       158-1.14427E+03 4.21715E+01-2.85526E+01 3.55844E+02 5.06474E+01 1.15141E+02
 -1       159-1.00008E+03 2.53064E+01 3.18228E+01 3.54648E+01 2.36937E+01 2.95539E+01
 -1       160-1.14730E+03-1.33967E+01-6.40837E+00-5.32316E+01 3.53150E+00-3.89771E+01
 -1       161-1.35191E+03-3.18489E+00-1.56466E+01-4.41390E+01-3.52012E-02-4.12699E+01
 -1       162-1.52281E+03-5.99905E+00-1.79241E+00-3.48246E+01-2.55659E+00-2.87253E+01
 -1       163-1.72849E+03 1.28319E+01 6.79659E+00-3.57504E+00 3.26869E+01-3.56967E+01
 -1       164-2.12293E+03 6.49804E+00 1.15843E+02-2.75693E+02-1.09577E+02-2.60062E+02
 -1       165-9.67139E+02-1.07552E+02 1.22388E+02 8.32997E+01 1.18746E+02-9.73908E+01
 -1       166 2.42297E+01-2.07113E+01 3.98181E+01 1.25542E+01-6.54755E+00 3.34849E+01
 -1       167 1.72239E-01 6.49336E+00 1.05479E+01-1.37013E+01-1.99570E+00 2.53538E-01
 -1       168 8.17721E-01 6.73092E-01 5.10929E-01-1.33580E-01-3.03806E-02 1.18242E-01
 -1       169 6.29853E+00 2.21468E+00 9.09892E-01 4.17149E+00 2.93829E+00 7.98888E-01
 -1       170-1.80373E+00 5.97322E+00-2.46017E+01 3.09049E+01 1.89870E+01-2.07513E+01
 -1       171 3.07713E+02 2.42060E+01-1.70144E+01 4.40230E+01 2.92642E+01 4.45211E+01
 -1       172-1.16574E+02 7.83697E+02 1.29949E+02-1.52365E+02 1.46292E+02 2.39359E+01
 -1       173 1.54433E+01 7.81734E+02 4.44842E+01 6.70077E+01-3.66843E+01-1.52335E+01
 -1       174-9.18985E+00 5.87249E+02 2.15679E+01 3.56398E+01-2.28320E+01-6.32092E+00
 -1       175-8.85687E+00 3.01290E+02 6.44125E-01 5.12905E+01-3.86421E+01 5.14167E-01
 -1       176 1.74652E+01-2.11687E+00-5.54290E+00 4.86069E+01-4.77205E+01-4.80629E-01
 -1       177 1.62999E+01-2.51274E+02-5.03395E+00 3.83706E+01-4.45062E+01 1.72751E+00
 -1       178 1.40857E+01-4.37831E+02-2.01042E+01 6.53024E+01-3.03687E+01 1.16510E+01
 -1       179 1.05238E+02-4.38902E+02-3.16486E+01-1.79962E+02 1.00275E+02-3.61638E+01
 -1       180-5.45176E-04 1.03707E-03-1.67773E-03-4.67692E-05 8.76208E-04-5.04222E-06
 -1       181-4.82801E-05-5.14254E-04 2.39183E-03-1.78076E-05 2.14090E-04-2.01930E-05
 -1       182 1.65234E-04 1.16890E-04 2.26253E-03-4.86927E-05 3.34836E-05-1.00741E-04
 -1       183-7.12484E-04 6.77424E-04-2.00314E-03 1.10502E-04 5.14177E-04 1.82094E-04
 -1       184 2.13484E+03 2.56115E+02 7.30085E+02-1.35073E+03-2.30040E+02 6.05076E+01
 -1       185-2.23270E+02-7.82618E+01-4.16600E+01 1.53825E+02 2.96442E+01 1.21916E+01
 -1       186 9.07687E+00 1.71247E+00 2.04810E+00-4.24770E+00 4.89085E-02-3.53698E-01
 -1       187-3.77836E-01-1.49791E-01-1.88610E-01 2.06136E-01-2.21741E-02 2.57742E-02
 -1       188-1.26128E-02-1.43262E-01-3.80624E-02-7.05438E-03-9.14058E-02-1.07799E-03
 -1       189-1.45907E-03 2.89011E-03-1.00295E-03-2.87750E-03-8.43584E-03-1.13655E-03
 -1       190-3.67119E-04 1.33432E-03-2.02739E-04 3.40673E-05-1.09790E-03-1.76535E-05
 -1       191 2.13544E+03 1.81377E+02 6.53593E+02-9.99142E+02-2.37188E+02-5.13685E+01
 -1       192-3.32840E+01-5.51422E+01-2.00841E+00 5.37212E+01 9.48317E+00-5.29585E+00
 -1       193 9.87418E-01 2.99430E+00 1.21355E+00-5.59682E-01 2.94662E-01-2.38704E-01
 -1       194-4.54004E-02-2.24732E-02 3.75684E-01 1.63703E-02 3.78569E-01-1.87551E-03
 -1       195 4.53111E-03 1.72856E-01 4.07796E-03 3.35053E-02 1.10601E-01 1.34812E-02
 -1       196 3.96423E-03 1.99639E-02 3.26826E-02 2.45361E-03 3.07780E-02 3.88534E-03
 -1       197-1.12904E-03 5.44423E-04-2.53991E-03 1.94158E-04-1.46842E-03-2.55869E-04
 -1       198-2.28406E+03-3.74859E+03-1.66697E+03-5.98917E+02-2.86436E+01-2.78461E+01
 -1       199-1.88486E+03-2.72362E+03-1.24266E+03-1.56543E+02-4.32304E+02 2.81738E+02
 -1       200 1.36040E+03-2.76461E+02 6.43414E+01-1.21944E+03-8.01253E+01 4.75911E+01
 -1       201 5.83854E+01 4.95929E+01 5.80276E+01 1.54554E+02 2.89745E+01 7.76947E+01
 -1       202-2.27923E+00 1.58907E+00 1.10293E-01-1.19891E+00-3.08113E-02 1.51940E+00
 -1       203 1.97957E-02 8.94412E-02 5.01347E-01 1.28093E-01 4.82468E-01 1.50382E-01
 -1       204 1.57400E-02 1.89816E-01 3.07473E-02 1.09035E-03 1.29571E-01-2.36726E-03
 -1       205 3.44132E-03 1.42979E-02 2.74610E-02 8.91467E-04 2.74500E-02 1.31803E-03
 -1       206-3.99438E-04 2.89404E-03-1.39647E-03-3.54847E-04 7.06933E-05-2.44608E-04
 -1       207 1.11925E+03-2.81390E+02 1.90992E+01-6.23771E+02 1.05204E+02 7.39347E+01
 -1       208-5.47779E+00 1.66659E+01 2.11092E+01 1.08649E+01 2.15651E+01 2.62508E+00
 -1       209-3.04465E-01-1.82135E+00-2.20396E+00-2.55980E-01-4.77227E-01-7.19303E-01
 -1       210-9.47879E-02-1.31305E-01-1.79147E-01 5.88692E-02-6.42347E-02 2.03313E-02
 -1       211 1.80304E-03-1.21125E-01-5.56220E-02-2.22030E-03-1.01578E-01 5.77813E-03
 -1       212 1.05446E-04 8.01469E-04-1.27602E-03-1.12103E-04-9.25871E-03-1.97765E-04
 -1       213-2.82066E-04 1.61655E-03-3.20253E-04-2.01149E-04-7.11598E-04 3.18323E-05
 -1       214-2.66603E+03 4.34311E+03 1.03959E+03 9.85684E+02-2.63008E+02 7.01275E-01
 -1       215-2.21371E+03 4.15722E+03 9.68674E+02 2.54780E+02 1.15117E+02 1.59497E+02
 -1       216 1.08705E+03 6.04920E+00 1.84415E+01-4.21988E+01 3.54985E+00-2.04168E+01
 -1       217 1.28266E+03 1.27880E+01 1.72742E+01-2.87630E+01 6.20251E+00-1.10870E+01
 -1       218 1.52563E+03 1.61679E+01 1.91827E+01-3.45877E+01 6.04490E+00-1.40062E+01
 -1       219 1.74403E+03 5.25250E+00 2.02065E+01-3.84020E+01 5.95180E+00-1.89960E+01
 -1       220 1.83936E+03-9.92153E+00 6.42773E+00-4.54844E+01 7.27683E+00-4.48011E+01
 -1       221 1.89997E+03-1.75901E+01-5.77992E+01-7.36907E+01-1.13271E+00-9.30706E+01
 -1       222 1.60034E+03-1.12046E+02-2.79449E+02-9.86116E+01-6.42630E+01-2.86177E+02
 -1       223 2.47954E+03 8.83647E+02 4.16983E+02 2.35827E+02 1.91755E+02 4.09467E+02
 -1       224 1.90091E+03 7.56980E+01-6.09760E+01-4.56653E+01-1.95921E+01 1.83784E+02
 -1       225 1.85885E+03-1.32703E+01 8.34656E+00-3.17304E+01-1.24681E+01 3.25237E+01
 -1       226 1.68059E+03-3.15973E+01 2.87196E+00-3.70046E+01-6.50075E+00 2.77959E+01
 -1       227 1.44485E+03-5.23112E+01 3.38702E-01-3.49883E+01-1.26707E+00 2.66473E+01
 -1       228 1.19872E+03-4.96966E+01 3.86193E+00-2.12475E+01-4.54164E+00 1.91891E+01
 -1       229 1.05176E+03 1.40409E+01 3.83568E+01-2.09945E+01-8.47859E+00 4.69804E+01
 -1       230-4.34655E+03-1.86997E+01-1.84432E+01-2.42024E+02 7.10922E+01-2.69296E+02
 -1       231-4.36643E+03-3.69417E+01 7.91606E+01-6.98861E+01-9.22495E+00-7.03453E+01
 -1       232-4.24906E+03 1.33537E+00-5.74490E+00-2.94315E+01-2.05548E+01-2.30429E+01
 -1       233-4.01472E+03 1.37725E+00-4.91517E+00-5.02419E+01-3.00447E+00-7.34815E+00
 -1       234-3.77431E+03 5.44052E+00 1.33988E+00-1.78700E+01-8.85494E+00-1.60628E+00
 -1       235-3.57470E+03 4.96842E+00 1.56214E+00-3.27914E+01 1.02122E+01-3.90034E+01
 -1       236-3.49665E+03-8.64390E+01-1.55716E+02 7.14910E+00 1.55225E+01 7.13270E+01
 -1       237-3.68416E+03 1.30352E-01 1.05336E+01-3.20745E+01 2.81277E+00 1.67341E+01
 -1       238-3.86934E+03 1.21054E+01 1.28652E+01-2.65351E+01-6.40542E+00 1.81803E+01
 -1       239-4.06025E+03 1.99788E+00 1.69262E+00-4.02785E+01-8.20389E-01 3.17098E+01
 -1       240-4.25046E+03 1.40351E+01-4.11226E+00-4.80494E+01-6.12337E+00 2.67561E+01
 -1       241-4.37949E+03-3.42920E+01-7.10576E+00-4.00964E+01 2.86266E+01 7.00790E+01
 -1       242-4.39423E+03-9.25102E+00 5.91470E+01-1.38913E+02 1.95048E+01 1.38596E+02
 -1       243-4.30721E+03-3.46868E+02-1.65139E+02-1.97454E+02-8.64082E+01 2.57562E+02
 -1       244 3.66819E+01-1.09411E+03-2.73021E+01 5.97915E+01-6.65043E+00-7.01553E+00
 -1       245 2.61640E+01-8.31965E+02-7.60566E+00 2.74878E+01-3.16648E+01 2.45301E+00
 -1       246-2.39063E+01-4.73788E+02-1.09327E+01 5.82874E+01-2.06748E+01-6.53962E+00
 -1       247-1.56482E+01-2.20131E+02-9.69172E+00 2.82155E+01-2.39462E+01 6.11063E+00
 -1       248-4.36123E+01 1.59684E+02 5.14348E+00 4.21334E+01-3.39188E+01 2.41233E+00
 -1       249-1.41362E+01 4.55648E+02 1.95137E+01 5.22917E+01-2.31837E+01 2.23413E+00
 -1       250-1.41025E+01 4.92758E+02 5.61593E+01 6.15829E+01 1.70155E+01-4.05175E+00
 -1       251-1.38737E+01 1.85345E+02 3.05548E+00 3.01011E+01 1.95929E+01 9.56482E+00
 -1       252 1.97565E+01-1.60083E+02 1.03373E+00 4.09527E+01 1.74265E+01 3.96328E+00
 -1       253 1.81660E+01-5.33330E+02-1.38596E+01 6.88755E+01 4.40622E+01 2.50394E+00
 -1       254 1.11548E+01-8.57237E+02-1.54312E+01 2.26338E+01 2.00320E+01-5.93250E+00
 -1       255 2.59970E+01-1.11399E+03-9.90368E+01 6.41944E+01-9.86229E+00 9.61684E+00
 -1       256 1.25867E+03-2.29432E+01 2.05499E+01 8.91540E+01-6.94522E+00-4.02106E+01
 -1       257 6.96994E+02 2.58028E+01-3.12625E+00 1.07185E+02 1.77778E+01 7.24499E+00
 -1       258 2.89254E+02 4.78092E+01-6.05437E+00 4.10359E+01 5.53494E+01 3.11760E+01
 -1       259 1.13376E+02-8.25155E+00-1.83712E+01-8.82317E+00 3.02792E+01 2.32735E+01
 -1       260-1.68409E+01-3.90519E+01-1.98028E+01 9.40720E+00 1.35458E+01 1.60934E+01
 -1       261-3.48442E+02-4.73789E+00-2.52600E+01 4.52773E+01 3.53696E+01-6.11804E+00
 -1       262-8.83017E+02-2.04816E+01-9.57838E+01 1.04035E+02 3.17239E+01-1.76516E+01
 -1       263-8.01376E+02 4.13737E+01-1.39342E+01 9.57056E+01-5.31391E+00 1.33771E+01
 -1       264-2.65571E+02 2.72540E+01-1.14079E+00 6.03886E+01-1.04013E+00 2.78163E+01
 -1       265 2.76750E+01 4.23211E+01 7.83273E+00 8.88536E+00 1.38257E+01 3.39494E+00
 -1       266 1.17528E+02 3.37347E+01-3.49514E+00-4.37573E+00 1.19763E+00 3.28560E+00
 -1       267 2.74314E+02 1.41031E+01-8.98711E+00 2.06934E+01 8.38910E+00 1.06730E+01
 -1       268 7.09628E+02-2.39785E+01-6.13128E+00 5.17337E+01-6.43316E+00 3.96492E+01
 -1       269 1.24880E+03 1.13651E+01 5.89730E+01 9.57820E+01-1.23512E+00 3.86684E+01
 -1       270 1.89674E+02 1.55269E+02-1.94573E+01-3.37693E+01-1.84178E+01 5.79487E+01
 -1       271 4.94500E+01 3.33009E+01 1.02702E+01-3.37572E+01-1.21426E+01 5.76511E+00
 -1       272-1.48455E+00 4.82029E-01-4.00705E-01 1.06754E+00-9.50026E-01 7.50512E-01
 -1       273 1.46375E+00 4.73246E+00 5.26653E-01 1.99319E+00 8.25224E-01-7.46729E-02
 -1       274-2.67824E+01 2.06682E+01-4.16092E+00-9.33136E+00 1.00838E-01-5.13398E+00
 -1       275 1.83123E+01 8.46351E+01 1.96838E+01 4.50968E+01 1.49091E+01 1.05866E+01
 -1       276 6.54645E+00 9.71606E+01-4.39893E+00 7.87243E+01-1.85905E+01 9.10259E+00
 -1       277-2.60037E+01 1.10821E+01 3.71716E+00-1.19979E+01 3.66514E+00 1.96715E+00
 -1       278 2.71308E+00 6.76951E+00 2.34185E+00 1.44464E+00-3.11690E-01 1.79928E-01
 -1       279 2.48896E+00 1.59980E+00-2.86543E+00-1.75253E+00 1.94552E-01 1.66008E+00
 -1       280 4.58875E+01 6.21407E+01-3.52816E+01-5.41595E+01 3.16368E+01 6.44016E+00
 -1       281 1.44193E+02 1.10691E+02-7.93693E+01-5.19477E+01 2.82021E+01-2.44088E+01
 -1       282-1.41337E+03 7.75961E+01-3.44574E+01-7.82168E+01 8.88902E+00 1.20710E+01
 -1       283-1.03248E+03 2.02250E+01-8.76216E+00 1.06036E+02 4.42649E+00-4.90702E+01
 -1       284-4.77843E+02 6.48584E+01 8.39074E+00 5.72120E+01-7.74284E+00-1.29592E+01
 -1       285-2.12669E+02 4.07373E+01 7.27805E+00-5.33466E+00-6.04928E+00-4.11088E+00
 -1       286-9.34037E+01 7.25868E+01-4.59999E+00 1.07766E+01 1.11067E+01 4.88457E+00
 -1       287 1.85338E+02 7.35084E+01 1.19892E+01 1.62098E+01-4.13224E+00-3.95486E+00
 -1       288 6.56007E+02 8.90465E+01-6.44480E+00 3.53134E+01-2.19020E+01-1.98623E+01
 -1       289 1.02535E+03-5.49682E+01 7.72494E+01-1.37421E+02-9.36577E+00 6.86969E+01
 -1       290-1.33837E+03 1.20430E+02-2.37705E+01-5.73741E+01-6.55178E+00-7.11156E+01
 -1       291-1.17328E+03-1.22339E+02-6.37245E+01 5.36428E+01-2.55676E+01 1.79470E+01
 -1       292-6.37752E+02-1.10928E+02-5.85303E+01 2.75742E+01-3.81008E+01-2.80691E+01
 -1       293-2.98818E+02-6.80186E+01-3.13528E+01 5.87067E-01-2.19070E+01-1.76621E+01
 -1       294-1.60476E+02 9.12325E+00-1.21078E+01-1.62621E+01-2.65240E+01-2.06462E+01
 -1       295 2.77555E+01 2.93367E+01-1.40672E+01 9.97846E+00-4.76881E+01-2.01579E+01
 -1       296 4.50848E+02 3.72935E+01 5.60332E+00 6.09245E+01-1.74631E+01 1.50265E+01
 -1       297 9.54190E+02 7.99915E+01 2.75370E+01 7.38887E+01-1.75035E+00 1.53680E+01
 -1       298 7.03286E+02-4.79068E+01 4.81861E+01-1.07647E+02 2.53094E+01-1.25764E+02
 -1       299-4.82423E+02 8.91731E+01-1.05835E+01-1.22896E+02 4.77142E+00 1.09718E+02
 -1       300-9.14310E+02-3.07956E+01 7.17741E+00-3.43544E+01 2.21834E+00 2.62544E+01
 -1       301-1.11902E+03-1.63705E+01 1.01861E+01-2.56194E+01 4.59490E+00 1.43859E+01
 -1       302-1.32965E+03-2.64245E+01 7.47019E+00-2.35656E+01 8.10404E+00 1.40301E+01
 -1       303-1.57481E+03-1.22553E+01 3.16831E+00-3.09376E+01 1.25237E+01 1.94127E+01
 -1       304-1.76638E+03-9.61750E+00-1.22606E+01-3.04707E+01 1.63936E+01 2.04321E+01
 -1       305-1.85701E+03 7.48165E+01-5.14934E+01 3.59510E+01 3.11237E+01-1.72265E+01
 -1       306-1.35518E+03 1.10013E+02 3.14286E+01 2.88748E+02-7.16384E+00-1.58100E+02
 -1       307-6.28262E+02-1.11949E+02 5.22089E+01 6.78612E+01-3.14446E+01-1.73231E+01
 -1       308-7.04960E+02-1.18201E+01 1.75685E+01-2.53946E+01-1.76997E+01 1.31084E+01
 -1       309-9.06507E+02-1.80123E+01 3.79327E+00-4.07140E+01 8.39964E+00 1.20645E+01
 -1       310-1.14770E+03 1.99231E+00-9.39972E-01-1.64276E+01 3.93172E+00 1.23496E+00
 -1       311-1.35151E+03-2.08782E+01-1.08733E+00-2.66358E+01-1.50167E+00 1.50006E+01
 -1       312-1.50615E+03 8.24405E+01 1.36133E+01-3.66032E+01-4.29009E+01 6.07583E+01
 -1       313-2.08247E+03 3.73983E+01 2.10749E+02-1.49473E+02-1.10707E+02 4.04915E+01
 -1       314-3.98918E+01 9.74169E+02 1.86434E+01-1.35591E+02-1.15112E+02 1.90225E+01
 -1       315 4.06488E+01 9.35218E+02-2.82849E+01 6.77855E+01 4.09467E+01-4.37999E-01
 -1       316 1.29975E+01 5.98104E+02 4.47271E+00 4.70101E+01 2.41376E+01 1.20753E+01
 -1       317 6.73192E+00 2.43403E+02 3.97430E+00 5.12399E+00 2.86519E+01-3.34539E+00
 -1       318 2.88481E+01-8.28331E+01-5.43795E+00 4.14991E+01 2.28617E+01-1.88880E+01
 -1       319-5.56247E+00-4.29127E+02 1.05127E+00 5.36178E+01 3.52566E+01 1.24594E+00
 -1       320 9.97595E+01-5.78743E+02-1.03973E+01-1.03947E+02-4.72086E+01 7.44461E+00
 -1       321-7.74811E+02-2.07606E+02-7.56309E+01 5.57940E+01 2.33151E+01-1.51679E+00
 -1       322 6.76002E+01 3.15020E+01 5.16142E+01 3.11432E+00-1.81957E+00-6.19375E+01
 -1       323-9.07472E+00 7.54890E-01 6.92272E+00-7.08320E+00 2.55239E+00 2.26390E+00
 -1       324 4.06325E-01 1.44165E-01-1.22924E-01 4.03476E-01 1.78484E-02-2.17262E-01
 -1       325 5.13721E+00 1.60037E+00-3.58634E-01 4.51109E+00-1.12841E+00 5.95782E-01
 -1       326 3.61148E+01 2.12985E+01-7.13258E-01 5.61501E+01-8.54055E+00 2.19671E+01
 -1       327 2.94275E+02 7.59508E+00-9.80573E+00 7.26462E+00-2.85826E+01-1.35139E+01
 -1       328-7.01744E+02 2.45982E+01-7.01419E-02-1.68161E+02 1.98800E+00-7.43985E+01
 -1       329-1.04683E+03-3.41951E+01 1.13700E+01-3.79647E+01-2.40835E+00-2.25926E+01
 -1       330-1.27464E+03 5.03985E+00 1.08999E+01-3.33218E+01-2.63188E+00-2.27233E+01
 -1       331-1.51936E+03 1.00480E+01 3.33624E+00-4.46283E+01-4.01008E+00-2.50417E+01
 -1       332-1.72497E+03 6.49269E+00-5.94106E+00-3.76994E+01-5.75345E+00-2.10812E+01
 -1       333-1.87263E+03 3.93788E+01-3.11633E+01 1.28600E+01-1.43293E+01-6.45813E+00
 -1       334-1.52826E+03-3.62310E+01-7.06180E+01 1.39057E+02-7.55300E+01 9.07401E+01
 -1       335-7.70623E+02-1.33401E+02 5.49528E+01 6.05099E+01 1.16662E+01 1.16970E+02
 -1       336-6.76293E+02-2.74193E+01 1.61745E+01-1.79479E+01 1.22057E+01-8.77985E+00
 -1       337-8.33702E+02-1.24309E+01 1.49671E+01-4.88556E+01 2.16759E+00-2.40795E+01
 -1       338-1.08573E+03 6.97079E+00 5.25472E+00-3.46928E+01 9.60046E-01-2.18210E+01
 -1       339-1.29774E+03-1.00896E+01 2.09818E+00-2.91994E+01 3.76549E+00-2.04359E+01
 -1       340-1.52602E+03 4.98335E+01 2.75472E+01-2.07966E+01 2.83335E+01-4.59600E+01
 -1       341-1.95189E+03 7.75069E+01 9.03636E+01-2.04200E+02 9.28393E+00-1.09477E+02
 -1       342-8.36080E+01 9.32460E+02 4.57640E+01-1.94614E+02 1.66453E+02 1.99565E+01
 -1       343 5.98511E+01 1.01319E+03-1.06532E+01 9.40088E+01-3.00254E+01-1.36558E+01
 -1       344-8.86016E+00 7.34751E+02-8.39687E+00 2.33450E+01-2.56002E+01 4.18533E+00
 -1       345-3.37579E+01 4.16621E+02-1.13970E+01 2.62582E+01-3.40971E+01-7.30248E+00
 -1       346 2.34630E+01 6.86393E+01-1.22028E+01 6.20531E+01-4.04572E+01 2.02171E+00
 -1       347-6.82224E+00-2.67561E+02 4.85174E-01 3.75362E+01-3.66514E+01 2.05289E+00
 -1       348-3.52592E+01-5.17457E+02-7.45385E+00 4.99445E+01-2.47200E+01 8.61989E+00
 -1       349 3.19434E+01-5.48160E+02-3.40079E+01-6.65660E+01 7.05376E+01 6.30466E+00
 -1       350-1.32709E+03-3.86714E+02-1.15960E+02 1.42398E+02 2.38976E+01-6.12275E+00
 -1       351 3.94797E+01-3.83061E+01 6.43625E+00 1.46775E+01-2.14922E+01 4.09679E+01
 -1       352-8.27339E+00-1.63533E+00-1.24966E-01-4.77949E+00-2.39540E+00 3.44329E+00
 -1       353 7.93815E-01 4.22909E-01 3.06818E-01-1.18639E-01 1.02285E-01 4.89495E-01
 -1       354 9.52548E+00 2.71607E+00 5.25818E-01 3.76662E+00 2.51010E+00-3.71682E-01
 -1       355 1.16845E+01 2.01098E+01-1.45883E+01 5.55889E+01 1.66755E+00-3.21145E+01
 -1       356 4.20502E+02 7.80729E+01 5.84637E+01 4.93479E+01 2.66678E+01-1.44511E+01
 -1       357-6.48340E+03-9.81662E+02-7.18808E+02 1.13395E+03-1.15507E+00-1.17773E+01
 -1       358-1.93438E+03-2.40108E+02-1.81951E+01-5.38181E+01 1.93902E+01 1.61801E+02
 -1       359-1.27613E+03 4.98630E+01-2.47274E+00 1.59649E+02 1.08017E+01 1.65521E+02
 -1       360-3.20910E+00-2.51207E+02 2.94669E-01 7.41177E+01 4.15187E+00 1.32080E+00
 -1       361 1.73840E+03-2.37435E+02 4.06368E+02-1.66196E+03 4.48344E+02-2.15947E+02
 -1       362-7.10651E+01-2.27366E+01-3.62185E+01 7.06397E+01-1.46631E+01-1.17830E+01
 -1       363-1.25453E-04-8.04697E-03 6.55276E-03-8.69561E-04 6.38082E-03-3.82945E-04
 -1       364-4.56805E+01-4.13846E+02-1.83207E+02-3.86625E+02 2.28608E+02-5.45259E+01
 -1       365-1.83098E+00 1.22198E+01-2.70741E+00-1.79717E+00-9.65595E+00-1.52439E+00
 -1       366-8.45467E-04-8.25488E-03 6.24013E-03 1.39281E-04 4.33825E-03 7.76712E-06
 -1       367 3.02621E+02 7.86996E+01 1.54988E+02-2.01183E+02-4.31451E+01-8.91171E+01
 -1       368 1.08212E-03 1.79419E-02 2.61178E-03 2.04238E-03 7.38477E-03 1.32720E-03
 -1       369 1.56142E+01 1.58435E+01 6.41501E+00 5.12286E+00 4.32484E+00-7.33295E-01
 -1       370 1.19818E-02 7.63293E-02 3.46328E-02 6.05056E-03 5.73531E-02 2.19427E-04
 -1       371-1.77561E-01 4.32850E-01 9.91319E-02 3.04436E-01 5.72765E-01-4.40779E-02
 -1       372 4.62513E-03 1.98414E-01 1.45535E-01 7.13527E-02 1.97686E-01 4.30637E-02
 -1       373 2.60883E+03 8.30705E+02 2.63284E+01 4.81027E+02 2.12948E+01-7.64676E+01
 -1       374-1.42920E+02-1.29992E+02-9.89874E+01-4.91747E+01-2.11188E+01-2.03574E+01
 -1       375 6.97415E-04 5.36338E-03 8.96457E-04-6.19233E-04-2.81260E-03 1.92685E-04
 -1       376-1.43652E+01-2.39024E+01-5.91383E+00 8.37435E+00 1.42003E+01 2.26928E+00
 -1       377 3.73501E-01-1.77987E-01-7.97949E-01-5.99484E-01-4.36794E-01-3.67867E-01
 -1       378 4.35699E-02-1.36191E-01 2.89872E-02 4.75786E-02-1.76102E-01 3.79839E-02
 -1       379-4.76660E+03-2.88770E+01 2.94527E+02 2.13689E+00-2.05277E+00 8.90621E+00
 -1       380-8.59233E+02 3.67399E+02-2.42763E+02-1.77566E+02-1.19485E+01-1.93706E+02
 -1       381-1.86750E+03-3.43243E+02 7.82171E+01-1.36194E+02 6.91257E+00-1.54768E+01
 -1       382-4.78812E+01 2.43942E+02 1.01171E+02-1.75965E+02 1.16601E+01 9.91341E+01
 -1       383-2.95048E+03-1.69088E+02 3.89555E+01-1.85067E+02 1.21879E+01-9.42140E+00
 -1       384-9.68790E+02 1.19362E+02 1.71778E+02-3.06379E+02 2.87228E+02 1.32860E+01
 -1       385-2.56734E+03-5.90084E+01 8.09789E+01-8.04443E+01-3.03526E+01-9.86228E+01
 -1       386-2.26249E+03-1.51991E+02 1.02936E+02-6.07791E+01-2.83090E+01-1.45586E+02
 -1       387-1.88677E+03-3.57444E+02-6.41428E+00 6.21061E+01-5.06838E+01-8.75633E+01
 -1       388-3.79540E+02 3.25178E+02-5.33981E+01-6.41214E+01 9.85506E+01 1.76784E+02
 -1       389 5.09738E+02 1.88383E+02-3.26948E+01-1.84031E+02 2.47828E+01-8.08731E+01
 -1       390 6.63538E+02 3.59956E+02 7.95608E+02-3.52001E+02-2.50628E+02-2.35198E+02
 -1       391-1.08317E+01-5.72220E+01 1.09390E+01 7.05845E+01-3.27435E+00 3.83964E-01
 -1       392-2.65376E+01 1.12917E+02 2.84884E+01 7.89374E+00 5.78628E+00 3.17796E+00
 -1       393-2.36353E+03-1.22778E+02 8.34895E+01-2.28056E+02 8.76611E+01-2.72643E+01
 -1       394-2.30921E+03 2.69888E+01 1.04353E+01 6.89477E+01-2.09518E+01-2.17112E+01
 -1       395-3.84872E+02-7.49426E+02 8.31447E+00-2.52123E+03-6.68837E+01 4.55300E+01
 -1       396 3.42080E-01-3.24948E-02-3.23929E-01-1.44723E-01-1.49404E-01 1.25835E-01
 -1       397 2.26167E-02-2.18207E-02 9.93862E-02-8.69095E-02 4.22586E-02-3.47883E-02
 -1       398 2.19652E+02 7.29559E+01-1.79637E+02 9.09292E+01 1.77217E+01 1.60226E+01
 -1       399-1.27055E+03 1.12079E+01 3.37030E+02 5.23662E+02-2.07710E+01 1.38728E+01
 -1       400 6.61599E+02 1.46994E+02-2.32630E+01-8.61535E+01-1.69236E+01 6.98118E+01
 -1       401 9.65110E+02 7.62907E+01 2.01238E+01-6.76883E+01 2.14884E+01 2.52046E+01
 -1       402 1.13699E+03 3.16583E+01-8.93055E+00-6.24522E+01 2.28207E+01 3.05310E+01
 -1       403 1.32358E+03 1.65889E+01-8.63307E+00-6.58778E+01 1.46154E+01 3.51841E+01
 -1       404 1.47376E+03 1.48943E+01-1.99384E+00-5.99402E+01-1.22952E+01 4.29837E+01
 -1       405 1.58013E+03 1.01547E+02-2.32424E+01-1.86314E+02-9.68731E+00 1.72955E+02
 -1       406 1.21785E+03 6.93307E+02 4.67922E+02-6.65829E+02 1.02716E+02 3.17520E+02
 -1       407-4.11101E+03-2.60239E+02-8.31580E+01-7.05682E+02-3.66059E+01 2.87564E+02
 -1       408-4.04979E+03-4.58582E+01 3.45379E-01-1.03733E+02 1.24018E+01 8.06735E+01
 -1       409-3.88167E+03-1.99339E+01-1.94611E+01-6.87033E+01 5.92966E+00 4.27223E+01
 -1       410-3.68472E+03-1.50470E+00-5.70541E-01-6.39615E+01-7.80857E+00 3.48693E+01
 -1       411-3.51008E+03 4.27880E+00 9.79994E+00-5.35595E+01 1.78802E+01 2.55843E+01
 -1       412-3.34297E+03-2.49936E+01-3.82428E+01-4.92968E+01-6.65160E+00 5.79499E+01
 -1       413-2.79567E+03 8.29365E+01 7.46747E+01-4.20863E+02 5.97045E+01 3.45191E+02
 -1       414 6.08516E+02 7.36614E+01-3.63371E+01-1.01429E+02 5.24488E+01-4.59383E+01
 -1       415 9.20791E+02 3.10073E+01 4.01787E-01-2.10401E+01 1.05160E+01-4.73831E+01
 -1       416 1.07854E+03 7.96645E-01-1.53348E+01-5.17471E+01 2.31636E+01-3.47772E+01
 -1       417 1.27056E+03-4.29298E-01-7.52937E+00-6.14897E+01 2.50477E+01-3.85504E+01
 -1       418 1.44904E+03 2.04886E+01 5.04105E+00-6.19831E+01 1.03891E+01-3.96613E+01
 -1       419 1.53840E+03 3.81802E+01-4.63551E+01-8.96699E+01 1.58560E+01-9.16214E+01
 -1       420 1.59497E+03 9.32820E+01 1.42854E+01-2.12613E+02 9.90330E+00-2.10465E+02
 -1       421-2.01531E+02 1.50701E+03 6.13665E+02-3.36271E+02 7.10497E+00-8.35441E+02
 -1       422-4.15987E+03-1.40993E+02-5.11315E+01-6.03141E+02-1.43162E+01-5.35781E+02
 -1       423-3.99398E+03-2.04932E+01 4.59629E+01-1.41432E+02-1.82286E+01-1.11294E+02
 -1       424-3.88398E+03-5.87757E+00-1.53972E+01-5.83743E+01-7.30280E+00-5.04033E+01
 -1       425-3.70103E+03-2.80956E+01-1.68899E+01-2.13932E+01 9.92260E+00-3.06317E+01
 -1       426-3.52256E+03-1.83286E+01-2.91700E+00-4.08510E+01 1.73023E+01-3.15282E+01
 -1       427-3.37910E+03-3.23619E+01-9.40709E+00-4.28869E+01 1.86786E+01-5.96761E+01
 -1       428-2.82032E+03-1.57011E+02-6.70545E+01-1.86076E+02-1.06829E+02-2.72757E+02
 -1       429 4.56090E+02 1.17189E+02-2.93489E+01 2.55232E+02 1.59703E+01-9.13151E-01
 -1       430-1.15485E+03-1.62251E+02-2.37259E+01 2.78392E+02-2.65647E+02 4.17246E+02
 -1       431 3.55875E+01 8.22969E+01 3.16454E+00-5.20319E+01 2.70660E+01 1.98126E+01
 -1       432 2.57997E+00 1.78707E+01-2.02329E+00-7.41972E+00 4.37564E+00-2.58963E+00
 -1       433 6.46364E-01 4.66301E+00 3.73129E-01 3.00919E-01 9.37197E-02-1.84317E-01
 -1       434-1.28778E+01 1.10925E+01-6.88340E+00 5.03177E+00-4.89822E+00-1.76204E+00
 -1       435 1.42038E+00 6.19948E+01-1.16478E+01 1.53048E+01-1.27910E+01-1.39513E+00
 -1       436 4.22600E+02 2.03542E+02-1.86306E+01 1.64546E+02-1.60680E+02-2.08694E+02
 -1       437-9.90956E+02-1.34485E+02-3.78393E+01 3.54285E+02 1.24673E+02-2.43449E+02
 -1       438 2.83302E+01 7.69192E+01-4.21990E+01-5.23419E+01-1.00512E+01-2.37127E+01
 -1       439-1.53693E+00 1.05856E+01-3.38222E+00-3.64899E+00 1.19911E-01-4.61817E+00
 -1       440-4.05933E-01 3.55948E+00-2.02311E-01 3.53631E-01 1.79837E-02-1.11887E-01
 -1       441 4.69586E+00 1.57999E+01 3.93236E+00 4.01169E+00 2.93686E+00 2.96658E+00
 -1       442 6.42026E+00 6.60708E+01 1.62807E+01 3.14556E+01 1.42298E+01 7.70815E+00
 -1       443 5.21604E+02 2.48286E+02 8.69737E+01 2.19620E+02 8.72924E+01 9.00608E+01
 -1       444-2.08594E+02-2.06252E+02 3.21323E+02 1.62128E+02 4.11304E+01-5.92650E+01
 -1       445 8.70876E+02 9.14083E+01 1.30990E+01-7.32924E+01 1.24864E+02-3.22315E+01
 -1       446 8.51669E+02 2.18335E+01 4.07114E+01 1.35474E+02 1.22449E+01 6.53707E+01
 -1       447 4.69796E+02 6.07297E+01 4.13218E+01 1.09278E+02 3.25976E+00 5.61498E+01
 -1       448 1.76236E+02 4.16986E+01 2.82211E+01 3.09458E+01-9.56127E+00 1.64735E+01
 -1       449 5.18000E+01-1.02292E+01 8.22339E+00 1.05487E+01 1.58464E+01 1.66885E+01
 -1       450-1.08826E+02-1.80145E+01 1.93821E+01 5.86613E+01 2.63649E+01 2.43864E+01
 -1       451-5.23377E+02-9.05265E+01-2.90922E+01 1.42295E+02 4.20776E-01 4.53722E+01
 -1       452-7.46503E+02-2.62862E+02 2.85041E+01 3.57071E+01-8.56580E+01-2.11855E+00
 -1       453 9.21031E+02 1.72860E+02 5.52475E+01 3.84171E+01-5.41144E+01 7.55225E+00
 -1       454 8.73240E+02 2.51824E+01-3.03632E+00 1.36678E+02-4.40042E+01-7.34314E+01
 -1       455 5.37609E+02 7.64762E+01 4.05109E+01 2.93081E+01 2.27907E+01-4.72988E+01
 -1       456 2.61391E+02 1.15213E+02 5.89147E+01 5.94031E+00 3.65792E+01-3.28911E+01
 -1       457 1.01675E+02 2.14833E+01 2.85099E+01-9.33096E+00 1.35749E+01-1.70611E+01
 -1       458-5.20440E+01-1.01284E+02-3.90021E+01 1.74910E+01-3.03346E+01-3.33119E+01
 -1       459-3.00834E+02-1.35816E+02-5.08885E+01 7.86331E+01-2.96543E+01-6.98187E+01
 -1       460-6.43886E+02-7.61144E+01-4.01125E+01 1.34224E+02-2.46557E+01-6.42654E+01
 -1       461-6.83819E+02-2.72637E+02 5.19029E+01-6.59801E+01 1.71683E+02-7.33268E+00
 -1       462-1.34576E+02-6.95449E+02 6.76661E+01-5.21278E+01-6.64936E+01-8.79664E+01
 -1       463-6.65150E+01-8.38065E+02-1.79327E+01 8.00985E+01 1.87901E+01 1.57494E+01
 -1       464-2.06147E+01-6.10385E+02 3.67835E+00 6.06185E+01 3.29609E+01 4.11875E+00
 -1       465-1.76138E+01-2.94232E+02-6.94861E+00 1.96001E+01 1.64647E+01 4.55049E-01
 -1       466-1.45062E+00 3.65083E+01 8.16748E+00 5.60186E+01 2.80338E+01-2.93826E+00
 -1       467 3.50875E+01 2.96440E+02 4.57363E+00 6.39306E+01 3.20293E+01-2.97834E+00
 -1       468-2.89648E+01 2.30169E+02-1.25223E+02-3.16153E+01 3.34372E+01 7.64664E+01
 -1       469-3.45345E+02-8.08559E+02 2.72792E+01-3.35118E+00 1.30257E+01 9.06107E+01
 -1       470-1.24427E+01-7.88805E+02 7.64848E+00 6.87565E+01-3.90182E+01-1.49462E+00
 -1       471-4.02123E+01-5.68162E+02-2.84822E+00 7.57162E+01-3.95097E+01 1.14678E+01
 -1       472-3.75553E+00-2.78624E+02 2.28332E+00 5.06653E+01-2.86867E+01-3.76443E-01
 -1       473 4.08790E+01 6.63812E+00 8.91590E+00 7.12291E+01-4.32129E+01-1.59070E+01
 -1       474 8.56115E+00 2.55139E+02 4.03705E-01 6.93840E+01-3.73278E+01 1.01383E+00
 -1       475 1.95706E+02 3.70578E+02 1.57581E+01 1.76664E+01 8.54921E+00-2.62778E+01
 -1       476-5.01752E+02-1.57546E+02-2.07065E+02-8.90002E+01-3.66110E+01-6.42780E+00
 -1       477 5.11313E+01 6.73902E+01-1.34366E+02-1.16195E+02-2.79578E-01 2.93951E+01
 -1       478-8.42111E+02 8.48312E+01-4.07164E+01-1.14305E+02 1.19497E+01 1.21010E+02
 -1       479-1.05490E+03 1.83039E+01-2.01978E+01 2.24618E+01 3.27574E+01-4.07574E+01
 -1       480-7.65488E+02-1.27162E+02-5.14784E+01 1.36042E+02-3.13952E+01-7.21336E+01
 -1       481-4.10865E+02-1.71026E+02-6.70376E+01 7.76638E+01-4.96109E+01-3.29780E+01
 -1       482-2.23929E+02-1.21851E+02-3.93177E+01 1.96605E+01-5.78741E+01-1.41660E+01
 -1       483-7.59448E+01-4.46607E+00 1.12360E+01 4.72867E+01 7.29896E+00-3.24687E+01
 -1       484 1.41074E+02-3.06120E+01 1.18427E+01 1.17205E+02 2.89858E+01-6.48327E+01
 -1       485 5.57253E+02 1.37842E+02 1.06443E+02 1.13084E+02-2.23129E+01-5.41172E+01
 -1       486 7.22118E+02-1.03104E+02 4.94638E+01-1.09924E+02-7.41118E+01 7.57466E+01
 -1       487 3.53914E+02-2.98514E+01 2.72325E+00-2.71859E+02-9.73041E+00 1.86375E+02
 -1       488-9.72818E+02-2.92628E+01-1.04638E+02-1.44323E+02-3.72533E+01-6.75628E+01
 -1       489-8.84324E+02 2.29098E+02 8.89702E+01 9.48154E+01-1.05112E+02 4.34861E+00
 -1       490-4.42927E+02 2.51028E+02 1.21009E+02 8.02126E+01-8.76068E+01 6.48645E+01
 -1       491-2.16056E+02 7.96757E+01 3.51054E+01 2.01293E+01-3.14313E+01 3.82566E+01
 -1       492-1.31866E+02 4.06478E+00 9.16540E+00-8.92948E+00-6.29610E+00 2.42362E+01
 -1       493-1.59268E+01-9.70772E+01-3.18469E+01 4.73883E+01 3.56337E+01 5.64979E+01
 -1       494 2.89332E+02-1.89546E+02-6.12131E+01 1.28501E+02 7.49830E+01 9.68738E+01
 -1       495 6.51190E+02-2.23723E+02-1.64569E+01 2.90790E+01 3.40755E+01 6.44784E+00
 -1       496 3.93229E+02 3.22138E+01 4.47492E+01-3.06497E+02-7.08984E+00-2.20132E+02
 -1       497-2.70611E+02 3.35958E+01 1.80834E+01-2.16062E+02-1.50986E+01 1.10898E+02
 -1       498-6.73809E+02 3.80121E+01-3.16706E+01-1.43090E+02-2.20457E+01 8.56886E+01
 -1       499-8.86600E+02-3.51014E+01-4.15308E+01-6.00433E+01-2.21529E+01 3.39122E+01
 -1       500-1.05857E+03-3.33195E+01-3.50356E+01-5.15692E+01-1.75795E+01 3.27818E+01
 -1       501-1.24285E+03-9.52969E+00-2.23874E+01-6.20998E+01-1.26819E+00 3.84529E+01
 -1       502-1.40232E+03-1.88120E+01-2.52143E+01-6.13294E+01 1.56585E+01 3.36785E+01
 -1       503-1.45268E+03 7.58088E+01-2.45713E+01 3.97195E+01 2.49762E+01-4.21312E+01
 -1       504-1.31369E+03 3.26541E+01-2.25451E+01 2.86197E+02-1.37766E+01-2.25167E+02
 -1       505-1.04113E+03-7.92057E+01 1.04918E+01 1.02227E+02-5.20362E+01-8.16514E+01
 -1       506-1.08202E+03 9.47539E+00 1.40116E+01-5.23011E+01-1.90201E+01 3.77166E+01
 -1       507-1.25061E+03 3.36576E+01 8.80130E+00-6.55609E+01-7.43345E+00 4.51991E+01
 -1       508-1.43984E+03 3.82893E+01 1.03768E+01-4.00358E+01 8.93954E+00 3.28031E+01
 -1       509-1.59153E+03 4.08619E+01 1.59441E+01-5.80106E+01 4.39343E+00 4.69715E+01
 -1       510-1.76101E+03 6.95865E+01 3.15538E+01-9.10987E+01-1.94745E+01 1.04626E+02
 -1       511-2.31893E+03-7.68508E+00 3.20235E+01-2.13867E+02 8.60154E+01 2.16988E+02
 -1       512-1.95565E+03-4.91265E+02-2.37966E+01-2.17416E+02-1.31825E+02 1.23132E+01
 -1       513-4.63264E+02-1.54355E+02 3.41825E+01 7.88550E+01-1.43668E+01-1.06933E+01
 -1       514 2.34337E+01 1.02853E+01 9.71795E+00-8.26920E+00 6.45557E+00-1.32888E+01
 -1       515 4.64951E-01 1.28472E+00 2.61938E+00 4.89437E-02 1.26502E+00-1.82647E+00
 -1       516 2.18998E+00 8.66509E-01-3.39891E-01 2.83458E+00-1.15192E+00 2.59907E-02
 -1       517-2.65015E-01 9.98826E-01-5.64968E+00 2.03349E+01-5.68832E+00 3.51105E+00
 -1       518 1.82936E+02 5.34254E+01-2.04232E+01 8.65073E+01-3.63468E+01 7.32351E+00
 -1       519-1.42803E+01-6.42383E+01-4.46347E+01-5.11209E+01 1.22276E+01 6.09256E+01
 -1       520-3.58672E+01 4.21466E+02 9.73168E+00-3.23889E+02-2.05589E+02-3.76165E+01
 -1       521-8.42732E+01 7.80541E+02 4.15227E+01 2.48278E+01 9.07083E+00 1.56039E+01
 -1       522-2.06215E+01 5.71962E+02 7.53504E+00 4.50941E+01 3.27176E+01-3.26636E+00
 -1       523-5.98801E+01 2.76785E+02-3.20510E+00 6.80073E+01 3.71137E+01 3.63217E+00
 -1       524 2.96568E+00 6.25126E+01 8.46087E+00 6.67070E+01 3.41224E+01 7.42418E+00
 -1       525-1.93452E+01-2.38369E+02-5.14001E-01 6.74487E+01 3.71151E+01-4.39290E+00
 -1       526 2.29442E+01-4.46477E+02-2.58107E+01 3.33603E+01 1.95894E+01-3.40691E+00
 -1       527-1.53966E+01-2.97883E+02-6.82969E+01-7.92307E+01-8.17479E+01-5.13944E+00
 -1       528-2.54004E+02 2.49478E+01 1.72582E+01-1.42872E+02 2.06269E+01-1.18573E+02
 -1       529-7.02030E+02-4.52037E-01-4.03021E+01-4.98185E+01 3.79650E+00-4.46355E+01
 -1       530-9.25443E+02 5.69922E+00-1.40400E+01-5.27629E+01-1.81659E+00-3.14617E+01
 -1       531-1.12681E+03 3.54665E+00-1.12789E+01-6.57385E+01-1.48204E+00-4.08974E+01
 -1       532-1.31268E+03-4.79879E-01-1.14428E+01-6.62371E+01-4.20856E+00-3.96503E+01
 -1       533-1.46006E+03 2.02403E+01-4.31599E+01-2.54039E+01-1.90425E+01-1.46336E+01
 -1       534-1.26875E+03 2.08802E+02 1.54281E+02 2.48294E+02-3.93482E+01 2.19534E+02
 -1       535-1.10174E+03-1.19937E+02-8.07211E+00 1.39778E+02 2.24986E+01 1.02649E+02
 -1       536-1.06818E+03-3.98152E+00 8.63760E+00-4.40005E+01 1.73092E+01-2.17955E+01
 -1       537-1.23270E+03 9.11235E+00-2.21292E+00-7.07122E+01-3.78128E+00-4.07890E+01
 -1       538-1.42779E+03 1.75775E+01 1.34375E+00-5.27968E+01-8.92349E+00-2.91942E+01
 -1       539-1.59882E+03 2.37644E+01 1.67818E+01-5.52359E+01-2.56936E-01-2.74072E+01
 -1       540-1.82198E+03-4.30288E+00 5.00371E+01-1.12078E+02 1.50328E+01-8.02126E+01
 -1       541-2.36779E+03-1.84139E+01 6.74337E+01-2.79918E+02 5.12537E+00-7.73829E+01
 -1       542-1.25802E+03-2.89569E+02 5.65525E+01-1.04100E+02-5.77380E+00-1.26781E+02
 -1       543-1.58260E+02-3.05225E+01 9.70010E+01 3.37186E+01 4.06557E+01 8.37817E+00
 -1       544 2.70320E+01 4.57183E+00-1.56037E+00-2.29287E+01-8.40702E+00 1.31232E+01
 -1       545-2.04477E+00-3.72780E-01-5.57928E-01-3.04599E+00-1.43838E+00 4.61759E-01
 -1       546 3.24257E+00 1.63852E+00 8.91051E-01 3.82512E+00 1.92083E+00 7.06117E-01
 -1       547-3.48226E+00-4.56566E-01-1.04411E+01 2.15602E+01 1.11611E+01-8.55332E+00
 -1       548 2.32568E+02 6.87648E+01-1.10370E+01 9.51751E+01 4.26720E+01-2.60130E+00
 -1       549-4.79168E+01-7.74316E+01-4.65781E+01-6.59320E+01-1.93494E+01 5.71123E+01
 -1       550 1.83585E+01 4.29667E+02 6.52677E+01-3.29718E+02 2.12215E+02-3.83264E+00
 -1       551-1.27413E+02 7.93536E+02 6.90243E+01-2.81385E+01 5.05613E+01 1.89080E+01
 -1       552-1.15297E+01 6.87191E+02 3.15007E+01 6.71421E+01-3.95236E+01-1.08420E+01
 -1       553 1.51070E+01 5.02468E+02 1.19837E+01 5.98432E+01-3.88660E+01 7.38130E-01
 -1       554-4.06282E+01 1.65374E+02-8.03431E+00 2.25886E+01-1.21860E+01 4.63201E+00
 -1       555-2.58740E+01-1.25725E+02 7.98835E-01 4.38838E+01-3.38232E+01 1.08801E+01
 -1       556-2.66537E+01-3.58153E+02-1.96065E+01 6.53745E+01-3.12505E+01 3.37339E+00
 -1       557 9.47186E+01-4.54825E+02-1.54602E+01-2.35063E+01 1.90227E+01-6.85855E+00
 -1       558 7.07000E+00-2.36343E+02-1.05391E+01-1.83588E+02 1.30032E+02-2.57022E+01
 -1       559-1.40395E+03 9.08275E+00-3.86894E+02 1.24913E+01 9.10589E+01 6.37632E+01
 -1       560-5.47169E+01-2.75059E+01 9.01850E+01-5.81617E+01-4.30465E+01-2.33396E+01
 -1       561 5.54553E-05-8.07007E-04-8.04368E-04-2.38641E-05-9.02445E-04 1.13811E-05
 -1       562-1.58655E-04-6.00646E-04-1.56866E-03 1.21237E-04-3.91068E-04 5.52350E-05
 -1       563 1.17735E-04 1.38178E-03 8.34595E-04-2.94296E-05 7.43482E-04-1.86209E-05
 -1       564-9.18307E-07-5.83606E-04 1.56766E-03 5.54587E-06 7.49062E-05-3.10930E-05
 -1       565-2.51363E-05 1.89145E-04 1.78630E-04-1.36185E-05-1.25997E-04-7.53995E-06
 -1       566-1.56715E-04-4.89015E-04 1.66187E-03 5.13036E-05 1.31417E-04-1.05329E-05
 -1       567 3.47843E-04 1.20368E-03 7.57950E-04-1.57549E-04 5.61208E-04-1.26236E-04
 -1       568-1.50601E-04-6.25362E-05-1.37392E-03 5.55668E-05-2.48961E-04 1.15557E-04
 -1       569-8.26059E+02-3.15946E+03-1.00264E+03 1.15422E+03 1.18172E+02-9.44627E+01
 -1       570-3.93691E+02-5.77874E+01-1.02829E+02 1.47604E+02 6.46692E+01 2.15659E+01
 -1       571-1.08364E+01-2.95849E+01-8.06193E+00 3.35700E+00 1.33462E+01-3.95803E-01
 -1       572 1.07793E-01-8.09744E-02-6.19759E-01-1.80133E-02-2.57549E-01 4.91216E-03
 -1       573-1.61502E-02 2.94040E-02-4.19089E-03 2.28401E-02-2.47630E-01 1.00233E-04
 -1       574 1.41739E-02 1.94363E-02 5.56808E-03-8.27198E-03-1.66687E-02-5.21174E-03
 -1       575 2.11686E-03 6.85305E-03 2.09151E-03-7.34527E-04-3.44668E-03-2.51643E-04
 -1       576 4.21926E-05 1.03912E-03 1.24137E-04-2.22896E-05-5.39606E-04 5.72337E-06
 -1       577 2.17385E+03-2.14534E+03 1.87133E+02 1.77878E+02 1.07897E+02 2.74149E+02
 -1       578-2.06863E+02 3.30889E+01 5.14127E+01 9.33403E+01 3.72367E+01-2.49445E+01
 -1       579 4.01406E+00 8.87357E+00 2.42067E+00 5.39230E-01 4.08973E+00 1.52332E+00
 -1       580 2.69209E-02 5.63363E-01 4.33666E-01 3.51973E-02 3.60115E-01 4.12429E-02
 -1       581-1.03802E-02 1.83472E-01 1.23603E-01 4.82893E-02 1.84732E-01 3.00653E-02
 -1       582-2.22980E-03 7.56643E-02 1.62331E-02 1.41967E-02 5.93924E-02 9.07774E-03
 -1       583-3.86181E-04 2.09504E-02 2.80257E-03 1.64456E-03 9.30797E-03 1.69192E-03
 -1       584 1.95698E-04 1.84504E-05 3.41574E-04-2.19735E-05 3.83047E-04-1.18298E-04
 -1       585-4.12235E+03-4.82402E+03-2.37841E+03-1.48937E+03-1.70942E+01-3.40779E+02
 -1       586-3.72003E+03-4.84535E+03-2.19896E+03-4.64937E+02-8.43715E+01 6.90055E+01
 -1       587-3.68084E+03-4.14178E+03-1.92976E+03-1.03315E+03-1.58243E+02 4.43180E+02
 -1       588 2.60235E+01 3.86864E+03 1.71296E+03 1.06258E+03 4.72431E+02 3.54118E+02
 -1       589 2.59582E+02-1.52315E+02 4.51120E-01 2.94253E+00-9.32040E+01-4.21984E+01
 -1       590 8.49891E+00 1.60854E+01 9.03177E+00 2.77256E+00 4.18545E+00 3.75210E+00
 -1       591-7.04995E-01 8.02802E-02-1.24359E-01 2.82564E-01 2.22246E-01-3.89828E-01
 -1       592-9.05541E-03 2.16721E-01 1.94910E-01 1.89245E-01 2.34452E-01 1.02366E-01
 -1       593 1.60041E-02 9.41903E-02 3.64675E-02-2.59114E-02 6.83124E-02-9.58695E-03
 -1       594 2.28405E-03 2.36175E-02 5.73647E-03 1.53064E-03 1.08066E-02 4.59869E-04
 -1       595 2.96584E-04 3.30899E-04 1.17214E-04 1.11001E-04 1.08285E-04 7.60780E-05
 -1       596 3.31468E+03 4.70215E+03 2.24099E+03-4.45379E+02 1.56197E+02 1.38925E+02
 -1       597 1.66114E+01-1.04280E+02-3.98683E+01-2.76480E+01-1.30215E+01 5.46570E+00
 -1       598-2.54938E+00-1.30104E+01-6.03805E-01 1.96376E+00 1.32053E+01 1.02640E+00
 -1       599 7.03170E-03-4.99325E-01-1.06964E+00 8.63526E-02-3.22137E-01 1.45035E-01
 -1       600-4.24473E-03 4.96788E-02-6.96804E-02 1.55619E-01-3.07671E-01 9.04546E-02
 -1       601 2.11917E-03 2.84830E-02 5.44912E-03 4.47185E-04-1.44243E-02 1.21573E-04
 -1       602 1.52577E-03 6.63444E-03 1.44230E-03 1.71162E-04-3.49698E-03 8.52821E-05
 -1       603 7.53361E-06 8.86830E-04 6.82198E-05-2.60296E-05-5.70145E-04 1.44161E-05
 -1       604-3.90295E+03 5.94889E+03 1.29976E+03 5.42915E+02 2.76786E+02-1.00335E+01
 -1       605-2.19143E+03 3.38377E+03 8.54535E+02 9.35164E+02 2.22178E+01-4.88488E+01
 -1       606-4.03307E+03 5.27259E+03 1.19306E+03 2.39286E+02-3.42320E+02 1.45636E+02
 -1       607-8.13385E+03 5.02769E+01-1.51556E+03-3.97683E+02-5.15233E+02-2.21870E+02
 -1       608 9.25691E+02 3.36833E+01 1.99656E+01-5.60364E+01 2.86585E+01-3.27481E+01
 -1       609 1.15427E+03 6.30220E+00 2.00155E+01-5.26569E+01 3.36801E+00-2.44655E+01
 -1       610 1.35959E+03-1.64351E+01 2.47828E+00-5.23530E+01 4.60266E+00-1.55988E+01
 -1       611 1.60103E+03-1.02450E+01 4.46259E+00-5.35137E+01 4.90211E+00-2.32730E+01
 -1       612 1.78754E+03-2.79936E+01 1.68468E+01-3.81573E+01 7.14528E-01-3.20640E+01
 -1       613 1.91115E+03 1.75881E+01-7.35956E+00-6.18773E+01 1.26982E+01-5.91787E+01
 -1       614 1.77415E+03 9.00771E+00-7.53344E+01-1.48031E+02-9.41189E+00-1.90005E+02
 -1       615 4.28516E+03 1.02194E+02 6.52101E+02-1.02903E+03 2.94010E+02 6.99864E+01
 -1       616 4.13414E+03 4.00966E+02 1.29907E+03-1.66509E+03 8.77767E+01-8.39892E+02
 -1       617 1.82899E+03 1.37796E+01-8.53149E+00-1.48576E+02 9.94186E+00 2.40801E+02
 -1       618 1.88115E+03 3.84318E+01-2.19107E+01-9.06246E+01-5.91716E+00 9.59236E+01
 -1       619 1.78558E+03 5.02019E+00 1.70265E+01-5.40979E+01-1.46560E+01 2.96582E+01
 -1       620 1.60004E+03 1.99335E+01 2.34256E+01-6.01946E+01-1.05333E+00 2.84178E+01
 -1       621 1.36188E+03 2.63811E+01 3.13000E+01-4.95058E+01 1.16760E+00 2.78302E+01
 -1       622 1.16152E+03 2.34632E+01 4.54004E+01-5.35626E+01-1.39023E+00 3.48404E+01
 -1       623 9.33404E+02 1.38358E+02 3.88088E+01-7.42139E+01-1.72047E+01 5.38512E+01
 -1       624 5.08773E+02 3.31821E+02 1.84045E+01 1.81659E+02 2.27477E+01-8.54926E+00
 -1       625-8.16154E+03 2.44738E+02-1.39519E+03-1.40561E+03 5.76711E+01-1.73838E+02
 -1       626-5.43387E+03-2.44701E+01-2.18737E+02-5.78129E+02 3.71642E+01 6.34846E+01
 -1       627-4.30728E+03-2.72318E+01-5.10125E+01-1.53471E+02 2.63808E+01-2.51332E+02
 -1       628-4.33063E+03-3.42166E+01 2.17406E+01-7.24695E+01 1.08396E+00-5.08305E+01
 -1       629-4.15374E+03-4.04682E+01-2.08509E+01-5.31932E+01 2.59986E-01-3.03579E+01
 -1       630-3.89833E+03-3.27030E+01-1.14260E+01-4.35838E+01 2.01095E+01-1.67313E+01
 -1       631-3.66391E+03 1.22349E+01-3.83134E+00-5.09255E+01 1.08956E+00-3.10966E+01
 -1       632-3.44014E+03 1.46261E+00-8.18282E+01-1.13945E+02-7.11850E+01-1.21650E+02
 -1       633-1.78854E+03-7.09241E+01 5.80584E+01 4.44503E+02-3.51528E+01 3.72485E+00
 -1       634-3.61254E+03-2.56529E+02-2.43004E+02-1.49267E+02 7.76844E+01 2.98343E+02
 -1       635-3.57662E+03 3.18848E+01-3.98292E+01-5.23680E+01 7.11680E+00 3.02906E+01
 -1       636-3.78011E+03 6.92655E+00 1.37129E+01-4.82293E+01-3.61055E+00 1.65949E+01
 -1       637-3.95074E+03 2.69669E+01 1.65066E+01-2.83130E+01-5.36593E+00 2.94016E+01
 -1       638-4.15868E+03 7.47046E+00-4.52505E-01-3.83776E+01 1.33513E+00 3.08932E+01
 -1       639-4.29372E+03-3.48246E-02 1.16323E+01-6.18690E+01 1.82140E+01 3.53142E+01
 -1       640-4.43165E+03-2.92710E+01 2.96436E+01-1.03808E+02 1.17032E+01 7.20535E+01
 -1       641-4.20188E+03 7.38766E+00 3.35037E+01-2.12031E+02-1.23960E+01 2.06967E+02
 -1       642-5.00088E+03 3.43220E+01-3.11016E+02-4.25294E+02 8.06750E+01-4.36937E+01
 -1       643-2.82908E+02-1.21812E+03-9.10149E+01 6.01509E+01 4.07855E+01 6.39414E+01
 -1       644 3.36426E+01-9.47789E+02-1.19677E+01 5.59782E+01-2.15800E+01-2.44914E+00
 -1       645-4.15923E+01-6.87715E+02-2.86050E+01 5.26811E+01-2.44271E+01 2.39079E+00
 -1       646 1.44398E+01-3.29042E+02 8.78815E+00 2.46058E+01-1.91306E+01 4.32175E+00
 -1       647-4.65270E+00-6.78122E+00 3.57478E+00 4.25748E+01-2.79003E+01-1.14208E+01
 -1       648-1.52853E+01 3.11943E+02 9.38358E+00 5.37211E+01-2.09093E+01 3.95813E-01
 -1       649 8.70240E+01 5.21327E+02 1.32865E+01 3.43550E+01-1.44682E+01-4.37502E+01
 -1       650 1.80942E+02 5.58136E+02 3.74462E+01 4.23172E+01 1.81329E+01 4.95938E+01
 -1       651-2.09947E+01 3.37315E+02 1.94541E+01 3.90213E+01 9.15222E+00-2.31101E+00
 -1       652-3.42970E+00 5.28497E+01 1.64695E+01 3.87776E+01 1.82716E+01 2.36654E+00
 -1       653 1.44665E+01-3.36644E+02-3.38722E+00 1.63146E+01 7.16096E+00 2.68859E-01
 -1       654 5.77189E+00-7.31233E+02-1.54102E+01 5.17224E+01 1.03755E+01 4.44103E+00
 -1       655 3.95160E+01-9.63242E+02-5.20290E+01 3.25300E+01-2.18342E+00 7.71512E+00
 -1       656-3.07127E+02-1.29594E+03-1.24736E+02 5.54801E+01-5.85070E+01-9.26552E+01
 -1       657-7.01508E+02-7.17198E+02-6.90837E+01 2.86386E+02 1.36971E+01-1.42589E+01
 -1       658 1.38665E+03 5.97100E+01 8.56000E+01 6.43386E+01-5.47572E+01 1.73522E+01
 -1       659 1.00366E+03 1.40091E+02 5.39221E+01 1.18469E+02 4.97912E+00-5.43128E+01
 -1       660 5.43461E+02 1.57952E+02 6.02115E+01 7.70651E+01 2.91966E+01-2.63867E+01
 -1       661 2.02054E+02 3.20056E+01 1.64609E+01 2.67974E+01 8.81600E+00 4.54122E+00
 -1       662 6.86255E+01 5.65352E+00 6.13973E+00 1.58821E+01-1.14292E+00 2.52620E+00
 -1       663-2.00802E+02-1.12389E+02-2.99194E+01 5.39784E+01-2.66717E+01-1.72963E+01
 -1       664-6.68683E+02-1.07781E+02-6.98603E+01 1.15738E+02-1.71713E+01-2.15212E+01
 -1       665-1.12939E+03-2.44515E+02-1.30349E+02 7.94906E+01 8.82921E+01 5.15373E+01
 -1       666-1.04503E+03-1.55407E+02-6.84070E+01 7.53599E+01-5.57948E+01-4.51342E+00
 -1       667-5.44875E+02 1.96806E+00-1.36266E+01 1.27295E+02 6.46807E+00-2.85390E+01
 -1       668-8.91309E+01 4.55776E+01 1.68755E+01 3.68266E+01 2.01250E+01-3.49537E+01
 -1       669 8.76681E+01 2.76156E+01 6.57383E+00 9.23621E+00-5.06043E+00-9.75803E+00
 -1       670 1.74074E+02-3.55331E+01-2.65321E+01 6.38467E+00 4.30900E-01 1.15184E+01
 -1       671 4.97643E+02 7.44484E+00-4.03455E+00 4.49354E+01-7.99925E+00 2.96702E+01
 -1       672 1.00936E+03 5.72773E+01 5.28895E+01 6.72286E+01-1.61246E+00 4.34833E+01
 -1       673 1.42420E+03 1.97048E+02 1.46319E+02 5.19633E+01 8.31576E+01-6.49493E+01
 -1       674 8.94876E+02 3.42343E+02 1.43712E+02 3.07166E+02 1.10877E+01-1.14364E+01
 -1       675-4.75165E+02 7.60832E+01 1.18816E+02 2.76200E+02 3.79750E+01-2.09046E+02
 -1       676 7.46642E+01 1.29173E+02-6.14753E+00-5.60396E+01-3.33501E+01 2.99275E+01
 -1       677 5.67020E+00 1.20059E+01-3.68373E+00-1.42145E+00-1.77632E+00-1.72822E+00
 -1       678 2.71110E-01 3.83542E+00-7.89138E-02 6.53941E-01-2.08637E-01-4.02176E-01
 -1       679-1.99820E+00 1.17024E+01-5.61538E-02 2.41976E+00 2.00995E+00 6.07962E-01
 -1       680-3.70529E+01 3.09859E+01-1.22216E+01 1.04763E+01-1.85381E+00-1.26744E+01
 -1       681 1.96329E+02 2.31810E+02-2.20366E+00 1.43496E+02 7.22589E+01 9.00334E+01
 -1       682 2.15156E+02 2.33408E+02-3.61136E+01 1.98537E+02-8.04411E+01-1.16566E+02
 -1       683-4.15137E+01 3.82842E+01 2.66598E+01-2.92897E+00 1.12636E+01-1.61886E+01
 -1       684 5.76351E-01 1.70226E+01 2.36545E+00 3.99369E+00-3.51007E+00-8.79843E-01
 -1       685 4.19536E-01 4.23468E+00-9.93424E-01-1.34558E-01 6.77434E-01 9.13465E-02
 -1       686 1.88158E+01 1.94382E+01-1.53417E+01-7.76963E+00 1.34053E-01 5.01725E+00
 -1       687 4.44685E+01 9.67471E+01-6.80197E+01-7.91147E+01 5.24042E+01 2.34562E+01
 -1       688-5.45454E+02 3.66918E+01 5.69034E+01 2.41109E+02-8.89465E+01 2.15663E+02
 -1       689-6.97333E+02-2.91118E+02-2.96536E+02-1.24972E+02-6.72438E+00-1.46711E+00
 -1       690 1.89155E+01-2.40265E+01-3.37260E+02-1.21954E+02-1.53134E+01 2.90273E+01
 -1       691-1.04646E+03-3.01001E+01-9.92627E+01-1.54794E+02 2.41288E+01 5.92040E+01
 -1       692-1.31257E+03-4.74881E+01-5.14620E+01 7.51324E+01 1.11546E+01-2.41729E+01
 -1       693-8.05541E+02-1.16320E+02-3.86055E+01 1.14309E+02-2.90185E+01-3.32660E+01
 -1       694-3.69549E+02-9.65128E+01-3.22261E+01 3.15333E+01-3.04460E+01-2.10509E+01
 -1       695-1.81420E+02-2.93625E+01-1.70418E+01 1.75898E+01-1.50331E+01-1.28404E+01
 -1       696 2.19704E+01 1.09347E+01-2.77182E+00 3.32170E+01 1.01351E+01-4.41491E+01
 -1       697 4.79039E+02 1.22121E+02 3.03195E+01 4.85316E+01 2.97274E+01-6.39974E+01
 -1       698 9.52440E+02 1.38721E+02 4.80120E+01 1.98878E+01 1.74588E+01 7.91033E+00
 -1       699 5.96704E+02 1.20060E+02 3.54401E+01-2.49987E+02 5.04526E+01 1.31640E+02
 -1       700-1.01651E+03-1.86992E+00-1.05012E+02-8.53499E+01-7.66994E+01-8.45380E+01
 -1       701-1.34061E+03 4.94648E+00-4.43785E+01-9.47549E+00-2.82291E+00 3.84519E+01
 -1       702-7.82501E+02 1.49806E+02 3.51683E+01 9.01948E+01-4.60815E+01 2.86700E+01
 -1       703-3.23061E+02 2.05686E+02 7.56262E+01 7.79580E+01-4.07968E+01 1.06538E+01
 -1       704-1.78076E+02 8.66098E+01 2.42003E+01 2.58675E+01-2.37848E+01-6.13974E+00
 -1       705-1.18110E+02-4.04105E+01-3.24464E+01 3.70273E+01 1.72316E+01-1.19335E+00
 -1       706 1.34175E+02-8.90970E+01-4.86410E+01 9.18740E+01 2.60353E+01 2.84659E+01
 -1       707 5.93566E+02-8.76569E+01-3.25170E+01 1.16385E+02 3.42603E+01 5.58542E+01
 -1       708 1.04963E+03 1.51237E+02 8.02755E+01-9.89440E+01-6.61411E+00-2.83368E+01
 -1       709 3.38398E+02 6.21545E+01-4.32452E+01-2.07584E+02 4.51186E+01-1.63166E+02
 -1       710-2.26968E+02 8.54678E+01 6.87384E+01-1.52492E+02-7.72006E+00 8.97609E+01
 -1       711-8.23265E+02-5.17314E+01-2.59876E+01-9.21288E+01-8.93244E-01 7.21340E+01
 -1       712-1.03862E+03-2.12279E+01 7.11986E+00-3.10806E+01-2.55288E+00 2.09984E+01
 -1       713-1.26959E+03-6.52635E+01-6.11082E+00-4.21254E+01-1.76762E+01 1.74897E+01
 -1       714-1.49353E+03-6.88355E+01-1.09841E+01-5.14216E+01-8.15716E+00 2.55965E+01
 -1       715-1.69658E+03-3.36603E+01-1.01546E+01-5.29371E+01 9.51419E+00 2.63866E+01
 -1       716-1.81521E+03 2.13733E+01-3.65077E+01 4.50413E+00 1.31885E+01-1.80693E+00
 -1       717-1.68411E+03 4.67067E+01-5.89380E+01 1.65191E+02-7.16554E+00-1.46750E+02
 -1       718-9.85665E+02 9.11118E+01 5.78805E+01 2.20604E+02 1.80362E+01-1.46691E+02
 -1       719-6.52211E+02-3.79274E+01 4.30626E+01 4.91766E+00-4.51073E+00-6.54214E+00
 -1       720-7.94427E+02 1.27812E+01 2.31942E+01-5.56940E+01-6.22962E-01 2.19616E+01
 -1       721-1.02328E+03 3.08752E+01 1.37762E+01-5.34977E+01 3.14228E+00 1.88074E+01
 -1       722-1.22518E+03 2.96349E+01 1.57684E+01-4.62669E+01 7.87373E+00 1.33829E+01
 -1       723-1.41883E+03 1.25106E+01 1.37188E+01-4.60385E+01-2.41498E+01 4.45414E+01
 -1       724-1.67630E+03 1.23310E+02-1.69499E+01-1.42450E+02-5.67012E+01 9.70121E+01
 -1       725-2.27858E+03-3.88885E+01-4.98904E+01-1.32851E+02 2.07393E+01-2.68708E+01
 -1       726 1.39691E+02 5.04704E+02-1.94906E+01-2.59637E+02-1.29315E+02-7.56005E+00
 -1       727-1.51316E+01 1.04028E+03 8.10431E+00 8.19358E+00 7.74073E+00 9.11242E+00
 -1       728 7.39111E+00 7.48554E+02-1.42504E+01 6.49226E+01 3.07478E+01 3.20445E+00
 -1       729-2.64361E+01 3.82798E+02-6.51195E+00 5.94478E+01 3.25196E+01-1.67973E+00
 -1       730-5.87200E+01 7.53429E+01-1.82519E+01 3.86181E+01 2.31872E+01 3.41040E+00
 -1       731 3.42601E+00-2.73182E+02-5.88369E+00 6.60212E+01 2.99184E+01-9.34230E+00
 -1       732 1.64997E+01-5.62179E+02-1.37324E+01 3.78158E+01 2.01278E+01-6.70320E+00
 -1       733 6.02032E+01-2.96166E+02 3.02861E+01-1.31187E+02-7.16992E+01 2.26762E+01
 -1       734-1.33086E+03-4.94996E+02-3.19125E+02-1.43489E+02 3.18252E+01-4.23752E+01
 -1       735-3.11286E+02-9.27722E+01 2.04504E+00 8.26022E+01-1.10977E+01-4.98347E+01
 -1       736 3.55843E+01 1.49547E+01 1.42647E+01-1.40745E+01 3.81435E+00-1.23937E+01
 -1       737-9.53098E-01-2.58868E-01 9.02259E-02-2.47896E+00-2.28866E-01-1.42538E+00
 -1       738 2.37025E+00 6.61303E-01-1.65885E-01 2.87272E+00-4.43277E-01 5.35116E-01
 -1       739 4.83786E+00 8.54887E-01-1.98799E+00 2.22614E+01-3.44360E+00 4.70034E+00
 -1       740 3.00872E+02 1.05180E+02 4.97284E+01 1.00937E+02-4.19022E+01 1.73346E+01
 -1       741-1.46339E+02-7.26303E+01-9.57643E+01-1.03295E+02-6.33431E+00 3.48153E+01
 -1       742-3.11018E+02-7.00751E+01 3.02646E+01-1.76443E+02 8.04200E+00-8.24543E+01
 -1       743-8.85393E+02 4.22441E+00 1.00022E+01-7.33644E+01 3.00569E+00-4.20328E+01
 -1       744-1.15721E+03-8.30416E+00 1.15824E+01-4.51072E+01-3.42827E+00-2.01585E+01
 -1       745-1.40170E+03 2.22626E+00 5.52359E+00-5.62977E+01-7.99558E+00-2.36202E+01
 -1       746-1.63243E+03 3.03133E+00-4.00792E+00-5.63996E+01-8.10051E+00-2.11282E+01
 -1       747-1.81120E+03 1.73177E+01-2.25026E+01-3.21840E+01-1.34796E+01-6.15105E+00
 -1       748-1.76376E+03 1.33379E+01-4.22952E+01 1.36993E+02 1.32475E+01 1.08234E+02
 -1       749-1.15557E+03-8.68937E+01-1.05218E+01 1.32874E+02-2.23711E+01 1.66343E+02
 -1       750-7.02897E+02-4.72346E+01 6.12455E+01 5.38272E+01-3.67424E-01 8.43357E+01
 -1       751-7.24131E+02 8.59002E+00 2.91382E+01-5.13153E+01 9.31261E+00-9.53557E+00
 -1       752-9.51375E+02 2.20264E+01 1.23162E+01-6.28212E+01-7.35174E+00-2.13401E+01
 -1       753-1.18364E+03 2.58649E+01 1.02849E+01-4.27132E+01-1.04955E+01-1.68130E+01
 -1       754-1.41016E+03 1.04253E+01 1.90426E+00-4.59021E+01 4.54058E+00-1.45012E+01
 -1       755-1.71290E+03-4.38402E+01 3.02617E+01-6.80791E+01-2.54254E+01-5.74579E+01
 -1       756-2.33157E+03-6.22672E+01-4.27131E+01-2.78223E+02-1.73887E+00-7.31364E+01
 -1       757 8.90405E+01 4.28695E+02-3.00385E+01-2.13166E+02 2.43405E+02-2.67042E+01
 -1       758-3.07650E+01 1.08079E+03-4.97648E+00-2.04379E+01 2.38476E+01 1.45754E+01
 -1       759 1.74633E+01 8.57329E+02-3.75660E+01 6.86687E+01-3.27133E+01 1.06923E+01
 -1       760-4.24761E+01 6.32275E+02 5.69014E+00 2.31430E+01-3.57713E+01-1.67930E+00
 -1       761 8.34938E+00 2.47395E+02-2.31980E+00 2.02577E+01-6.82577E+00-3.41119E+00
 -1       762-1.93500E+01-1.33305E+02-1.06541E+01 4.70947E+01-1.15558E+01 2.09490E+00
 -1       763-2.17449E+00-4.05029E+02 1.20020E+00 6.87000E+01-3.16173E+01-1.55987E+01
 -1       764 1.02166E+01-6.39581E+02-2.83478E+01 4.70823E+00 1.04456E+01 3.22386E+00
 -1       765-6.60522E+01-2.83011E+02-1.43529E+00-9.12944E+01 1.19375E+02 1.12303E+01
 -1       766-1.82829E+03-6.09145E+02-2.02187E+02-1.24955E+02 1.91070E+01-2.87683E+01
 -1       767-5.00653E+02-1.48717E+02 4.92719E+00 1.14626E+02 3.31723E+01 6.06145E+01
 -1       768 5.07149E+01 2.21364E+01 2.30735E+01-2.13927E+01-4.81553E+00 4.89861E+00
 -1       769 1.30862E-01 4.97919E-01 1.52891E+00-3.26703E+00-1.10787E+00 1.31464E+00
 -1       770 3.27872E+00 1.34249E+00 1.19631E+00 3.76606E+00 1.02896E+00 5.36343E-03
 -1       771 9.04341E+00 5.62664E+00 9.71252E+00 2.33338E+01-4.47156E-01-1.03175E+01
 -1       772 2.96148E+02 1.00314E+02 3.82327E+01 1.04113E+02 4.10498E+01-1.88455E+01
 -1       773-9.73377E+01-4.59018E+01-5.56708E+01-8.70692E+01 3.36622E+00-4.21781E+01
 -1       774-2.15709E+03-2.96768E+02-7.36160E+02-6.11179E+01 1.95129E+02-4.12991E+01
 -1       775-2.95792E+01-3.22430E+01 1.62609E+02-5.83564E+01-8.66189E+00-2.70354E+01
 -1       776 4.99376E+02-1.60276E+02-1.25853E+02-8.87883E+01 2.12789E+01 4.81230E+00
 -1       777-2.40428E+03 5.22435E+01-8.83768E+01-8.46922E+01 7.03195E+01-1.16140E+02
 -1       778 8.11272E+02-8.22418E+01-2.84661E+01-4.79546E+01-6.31880E+00-9.71189E-01
 -1       779 1.29915E+03 1.44730E+01-6.39079E+00 4.50098E+00 2.58550E+00 2.05884E+00
 -1       780 1.40254E+03 2.30931E+01 8.73848E+00-8.65067E+00 7.38202E-01-9.42179E-01
 -1       781 1.44861E+03-1.60453E+01-2.00189E+01 1.12512E+00 2.08920E-01-3.69697E+00
 -1       782 1.54630E+03-7.01285E+00-2.33636E+01-1.17500E+01-1.32434E+00 1.81556E+00
 -1       783 1.70647E+03 4.84642E+00-4.50018E+01 2.00511E+01-4.52260E+00-4.13755E+01
 -1       784 1.95547E+03-1.00076E+01-6.83573E+01-2.44023E+01-1.25246E+01 3.00395E+01
 -1       785-4.08538E+03-5.37549E+00 3.61339E+01 3.54562E+01 7.13072E+00 3.79721E+01
 -1       786-3.96948E+03-7.91891E+00-1.00743E+01-1.18671E+01 2.12075E+00-6.14921E+00
 -1       787-3.87830E+03 3.16515E+00-7.50399E+00 6.58207E+00-3.76603E+00-1.48515E-01
 -1       788-3.76946E+03 4.00355E+01 8.52923E+00-4.68904E-01-3.62855E-01-4.56662E-01
 -1       789-3.22898E+03 1.17227E+02-1.01919E+02-3.41604E+02-3.52282E+01-1.76873E+01
 -1       790 1.21632E+03 3.11582E+01-3.17434E+00-1.37659E+01-5.55143E+00-6.50904E-01
 -1       791 2.54700E+03-1.44323E+02 1.96618E+02 5.10711E+01-3.33424E+01-7.45838E+01
 -1       792-4.57485E+03 4.16706E+01 8.82974E+01-4.08756E+01 3.26479E+01-1.05343E+02
 -1       793-5.87930E+03-1.24917E+02-5.90126E+02 1.17270E+03 1.54433E+02-3.97066E+02
 -1       794-3.36620E+03-3.26205E+01-1.73876E+01-8.22595E+00-9.88656E+00-2.45452E+01
 -1       795-3.47471E+03-1.45564E+02-4.30706E+01-1.22912E+01 3.41295E+00-8.81083E+00
 -1       796 1.09396E+03-3.71398E-01-2.40371E+01 3.24582E+00-9.39128E-01 2.47531E+00
 -1       797 7.79795E+02-2.32921E+02 3.02014E+02-3.26109E+02 1.08850E+01 3.52565E+01
 -1       798-5.13761E+03-3.67681E+01-4.11524E+02 1.71385E+02-6.88293E+01 2.94202E+02
 -1       799-4.53787E+03-4.17324E+01 6.40409E+01 1.07029E+02-1.13326E+01 6.34431E+01
 -1       800 8.86768E+02-1.86791E+01-2.81683E+01-2.99363E+00 2.74986E+00 9.13123E-01
 -1       801 1.03464E+03 7.47983E+01 4.84338E+00-1.27681E+01-6.56959E+00-5.26904E+00
 -1       802-1.99754E+03 7.03977E+02 2.79725E+02 1.40895E+03-4.43485E+01-1.96706E+02
 -1       803-3.48840E+03 7.80075E+01 2.85875E+01 4.14008E+00-2.77550E+00 1.24274E+00
 -1       804-3.69612E+03-2.31351E+00-8.77845E+00-8.07985E+00 8.69723E-01 6.84154E+00
 -1       805-3.63244E+03-9.10746E+01-3.45614E+01-2.36058E+00-1.35875E+00-8.01785E-01
 -1       806-4.30639E+03-5.01887E+00 8.57734E+01-7.70359E+01-1.25835E+01-1.48419E+01
 -1       807 6.40791E+02 5.27843E+02 5.93184E+02-7.91901E+01 4.62058E+01-1.76226E+02
 -1       808-3.94945E+02-1.39270E+02-3.19318E+02-7.04565E+01 3.11394E-01 6.86045E+01
 -1       809-2.87927E+02 4.64857E+01-1.79424E+02-9.04477E+01-1.63335E+01-3.44392E+01
 -1       810 3.36780E+01 7.39762E+01 1.97749E+01 2.89774E+01 9.17011E+00 7.19061E+00
 -1       811 4.41025E+02 2.10235E+02 2.61233E+02-9.85333E+01-2.58990E+01 6.11233E+01
 -1       812 4.61987E+01 4.61725E+01 1.08958E+01-5.00062E+00-4.91051E+00 5.65374E+00
 -1       813-1.48057E+02 5.18826E+01-6.72933E+01 2.20694E+01 4.74186E+00 2.12694E+01
 -1       814-7.04712E+01 4.25264E+00-1.22345E+01 8.86363E+00 2.69690E+00-1.02999E+01
 -1       815 5.22634E+00 1.78334E+01 1.51413E+00-1.80114E+00 1.40136E+00-4.64013E-02
 -1       816-3.20808E+00 3.58425E+00-1.81432E+00 1.73052E+00 4.02611E-01-1.49261E-01
 -1       817 1.01683E+00 1.49882E+01 5.26507E+00 7.25808E-01 2.21773E+00-2.06845E+00
 -1       818 5.16030E-01 2.16569E+00-1.95836E-01 1.56294E-02-4.65697E-01 6.02441E-01
 -1       819 2.22438E+00 5.05170E+00 9.71453E-01 3.05362E-01 3.08583E-01-1.83545E-01
 -1       820 6.55316E+02-1.49787E+02-3.30114E+01-8.68247E+01 1.00310E+01 3.98928E+01
 -1       821-4.35859E+02 3.04891E+02 2.28277E+02-1.35970E+02-5.45382E+00-3.02983E+01
 -1       822-6.87855E+02 1.66605E+02 4.32286E+01-9.48592E+01 4.76909E+00-1.31951E+01
 -1       823 9.97124E+02-1.45869E+02-3.02964E+00-1.26827E+02-3.17407E+00 1.49134E+00
 -1       824 8.77764E+02 1.40907E+01 3.91999E+01 1.09361E+01 9.61336E+00-5.02294E+00
 -1       825 6.30417E+02-3.01268E+01-1.40388E+01-4.36691E+00-1.84905E+00 6.10552E-01
 -1       826-4.03758E+02-1.86402E+02-5.06989E+01 1.93068E+01 2.64055E+01-4.65982E+00
 -1       827-6.14782E+02-9.25091E+01-2.26426E+01 1.96070E+01-9.56847E+00-1.67116E+01
 -1       828 5.15937E+02 1.42608E+01 2.04077E+01 1.97300E+01 2.06699E+00 1.34392E+01
 -1       829-9.30966E+01 2.03018E+02 1.14062E+02 1.92889E+01-1.25685E+01 1.27501E+00
 -1       830 2.50937E+02-9.25344E+01-3.22401E+01-1.52560E+01 1.16593E-01-1.75017E+00
 -1       831-1.45373E+02-2.51209E+02-7.97738E+01 1.36766E+01 1.45264E+01 5.22303E+00
 -1       832 1.95688E+02 1.93804E+00 1.10056E+01 1.31965E+01 6.31139E+00 2.72986E+00
 -1       833 1.42224E+02 2.67439E+02 1.29284E+02 1.67451E+01-5.35708E+00 7.97141E+00
 -1       834 1.75870E+02 1.48617E+02 7.60734E+01-3.42275E+00-1.29613E+01 3.95820E+00
 -1       835-1.20534E+01-1.97407E+02-6.52306E+01 8.93765E+00 2.90413E+00 1.77045E+00
 -1       836 3.49405E+01-5.48831E+02 1.50763E+02-1.13561E+02 2.27354E+01 2.80038E+01
 -1       837 1.07995E+01 2.75197E+02-8.11509E+01-6.48365E+01-8.64620E+00-1.66661E+01
 -1       838-1.53198E+02 3.16914E+02-6.80286E+01-3.25569E+01 4.62471E+00 1.03196E+01
 -1       839 2.33157E+02-7.96729E+02 1.15866E+02-7.87835E+01 1.07090E+01-9.38675E+00
 -1       840-7.19793E+01-8.06858E+02 1.54882E+01 3.37917E+00 6.55472E+00-4.94599E+00
 -1       841-4.22258E+01-7.01938E+02 3.24956E+01 1.02065E+00 5.30337E+00 1.38333E+00
 -1       842 4.69090E+01 2.83935E+02-5.91686E+00 7.19002E+00 7.61209E+00 1.98476E+00
 -1       843 2.36332E+01 1.62488E+02 8.57273E-02 3.00663E+00 5.40585E+00 3.57416E-01
 -1       844-1.04801E+01-6.02921E+02 5.55957E+00 3.76950E+00-5.34738E+00 3.63166E+00
 -1       845 1.81739E+01-4.06365E+02 1.13229E+01-6.03592E+00 4.04793E+00-4.35252E+00
 -1       846-1.03167E+01 2.40804E+01 1.05508E+01-4.81537E-01-6.06178E+00-4.09526E+00
 -1       847-3.13085E+01-1.65316E+02-1.84201E+01-1.03743E+01 4.18321E+00 9.44347E+00
 -1       848-3.63912E+00-2.70853E+02 2.26121E+00 1.37575E+00 2.38358E+00-4.41313E+00
 -1       849-8.86002E+02 3.28024E+01-6.69337E+01-9.24240E+00 9.79448E+00-2.32390E+00
 -1       850 3.17869E+02 1.28434E+01 4.32666E+01-5.64147E+01 1.07509E+01 1.07908E+01
 -1       851 7.21266E+02 5.12812E+01 1.75453E+02-3.53421E+01 5.14394E+00-1.30211E+00
 -1       852-1.05044E+03-7.36138E+01-2.96328E+01 2.67346E+00-7.81601E+00-1.29406E+01
 -1       853-1.17195E+03-8.43010E+01-3.99397E+01-3.41591E+01 5.40317E-02 6.02082E+00
 -1       854 6.11281E+02 2.21779E+01 5.01397E+01 4.04099E+01-2.34400E+01 1.00945E+01
 -1       855 4.29675E+02-7.03766E+01 2.51212E+00 3.83320E+01 1.72989E+01 7.32086E+00
 -1       856 7.27037E+02 2.78884E+01 1.00568E+02 5.96112E+00-1.92733E+01-3.53418E+01
 -1       857-7.72533E+02 2.01722E+02 7.62770E+01 5.83853E+01 2.97981E+01 5.45372E+00
 -1       858 2.65940E+02 6.75422E+00 2.44111E+01 1.33898E+01-4.08472E+01 1.98051E+00
 -1       859-6.94138E+02-1.29422E+02-5.05374E+01-3.16052E+01-2.20070E+01-4.43229E+00
 -1       860 2.08355E+01-1.59978E+02-4.93003E+01 4.27102E+01 3.41816E+01 2.60719E+00
 -1       861-3.29444E+02 2.38028E+02 1.10224E+02 5.57479E+01 4.56785E+01-8.02955E-01
 -1       862-5.83428E+01-8.05091E+01-1.39276E+01 2.80099E+00-2.60533E+01-7.48170E+00
 -1       863-2.94213E+02-2.45860E+01 6.94857E+00-1.03859E+01-5.66771E+00 1.99874E-01
 -1       864-1.50943E+02 1.20599E+00 1.53386E+01 1.66302E+00-9.43470E+00-2.89007E+00
 -1       865-1.86534E+02 2.25233E+01 2.87043E+01 3.07511E+01 2.38802E+01-5.07806E-01
 -1       866-1.53139E+02-1.08334E+02-2.65628E+01 2.77168E+01 2.16990E+01-2.26579E+00
 -1       867-7.16181E+01 1.83446E+02 9.61545E+00-2.96891E+02-3.03561E+01-2.95508E+01
 -1       868 8.88266E+01 9.86748E+00-1.85229E+01-2.60870E+02 2.78216E+00-4.51262E+01
 -1       869 1.99860E+01 2.61347E+01-2.84194E+00-6.98497E+01 4.48936E+00-5.09417E+00
 -1       870 7.40738E+01 9.34570E+01-2.84583E+01-1.05790E+02 5.11945E+01 1.00327E+02
 -1       871 1.92899E+01 2.93723E+00-4.75244E-01-8.35404E+01-1.26632E+01 2.26194E+00
 -1       872 6.73433E+01 3.96978E+00-5.59541E+00-6.04150E+01 1.05591E+01 7.31035E+00
 -1       873 1.24574E+01 1.22478E+01 1.18131E+01-6.35656E+01-1.04504E+01-3.27103E+00
 -1       874 6.16090E+01 1.16826E+01 9.22919E+00-6.75880E+01 5.61485E+00-8.69498E+00
 -1       875-2.40019E+02 2.15884E+01-2.28822E+01-2.00155E+01 3.92689E+01-2.42767E+01
 -1       876-1.75524E+01 2.12893E+01 2.72340E+01-8.58150E+01 7.42689E+00 6.74188E+00
 -1       877-2.53690E+03 2.03634E+01-9.03115E+00-7.16418E+01-6.18194E+00 5.15356E+00
 -1       878-2.47663E+03-6.42423E+00-1.88249E+01-5.49469E+01 1.77745E+01-1.35364E+01
 -1       879-2.54374E+03 3.17815E+01-1.94452E+00-6.73373E+01 1.42654E+01-9.26487E+00
 -1       880-2.48345E+03-2.26522E+01-6.41282E+00-7.83117E+01 1.07556E+01 8.24159E-01
 -1       881-2.54165E+03-8.85689E-01-2.07292E+01-6.35602E+01 3.71937E+01 1.00958E+00
 -1       882-2.49243E+03-1.84620E+01 2.42003E+00-6.20784E+01-7.74264E+00-1.16115E+01
 -1       883-2.62071E+03 1.10693E+00 1.09366E+02-8.43057E+01-3.83214E+01 3.13983E+02
 -1       884-2.51984E+03-3.78525E+01-8.63390E+00-7.11983E+01-2.62171E+01-3.22097E+01
 -1       885-2.20539E+03-1.93970E+02 2.52071E+01-1.63394E+02-1.13042E+02 5.03328E+02
 -1       886-1.98482E+01-2.90344E+01-3.46166E+00 3.12637E+01 1.84865E+01-3.26823E+01
 -1       887-8.60179E+02-1.52196E+02-3.76448E+01 4.09566E+01-4.35980E+01 1.04048E+02
 -1       888 3.98177E+02 1.35700E+02 4.29579E+00 1.31084E+02-1.65321E+01-4.19029E+01
 -1       889 7.54082E+01 8.78024E+01 9.01789E-01 9.60958E+01 1.51871E+01 1.54908E+01
 -1       890 3.10368E+01-5.30071E+01-2.08959E+01-1.52211E+02-1.76701E+01 3.95840E+01
 -1       891 6.93040E+02 4.14559E+01 2.47972E+00 3.68814E+01-1.20602E+01-3.18079E+01
 -1       892-2.82679E+02 1.97706E+02 2.43034E+01-1.45761E+02 3.73069E+01 3.14249E+01
 -1       893-8.88578E+01-2.56720E+02 5.84171E+00-3.20933E+00 3.69938E+01-2.13604E+02
 -1       894-7.61916E+01-3.20791E+01 1.19197E+01 2.01759E+02 4.64232E+01 2.27476E+01
 -1       895-2.19302E+02-1.76373E+02-4.55208E+01-4.28385E+02 6.14047E+01 3.81949E+01
 -1       896 1.75204E+02-4.00943E+02 1.53204E+00-3.42260E+02-1.43964E+01 1.04106E+02
 -1       897-4.87993E+02 1.85490E+02 1.53359E+01-2.83457E+02 6.84774E+01-7.17128E+00
 -1       898 1.35159E+02-2.63166E+01-1.36887E+00 5.73338E+00-2.59288E+01 6.03967E+00
 -1       899-2.06143E+01 6.49146E+00-1.83297E+00 1.01535E+02 1.80914E+01-1.39904E+01
 -1       900 3.01538E+02-1.18878E+02-1.27373E+01-2.12236E+02-1.50593E+01 1.43030E+01
 -1       901-2.01361E+02-7.09557E+01-2.10364E+00-2.01275E+01-9.87028E+01-4.49709E+00
 -1       902 1.73765E+01-9.28240E+01 5.74892E+00 9.91704E+01 7.69965E+00 9.82142E+00
 -1       903-3.03581E+01-1.87483E+00 1.45841E+01 7.86192E+01-5.97022E+00 5.74787E+00
 -1       904 3.45674E+01-9.19119E+01-1.08701E+01 6.66649E+01 1.79150E+00 3.93424E+00
 -1       905 6.08061E+00 1.16331E+02 1.18985E+00 3.51567E+01 8.98098E+00-4.24104E+01
 -1       906 5.16847E+01-8.98323E+01-4.94792E+00 1.36729E+02-1.10306E+02 1.89273E+01
 -1       907-1.67231E+01 1.22376E+02 2.20768E+01 1.77098E+02 3.21242E+01 3.01416E+01
 -1       908-2.09249E+00-6.42917E+01 9.02062E-01 1.23575E+02-3.85601E+01 6.57688E+00
 -1       909 8.45907E+01 7.75206E+00 4.36477E+01-2.08831E+01-7.47643E+00 1.02510E+01
 -1       910-3.01013E+01 2.43940E+01-3.13010E+01 2.25872E+01-1.34705E+01-1.89519E+01
 -1       911 2.56890E+01 1.71037E+01 2.83946E+00-8.26511E+01-2.08588E+01 1.08592E+01
 -1       912-4.85610E+02 1.00885E+02-1.93249E+01-1.88296E+02-9.77302E+00-2.09859E+01
 -1       913-2.57774E+03-1.58297E+02 2.82450E+01-4.95515E+02 4.96847E+01-3.93080E+01
 -1       914-2.92366E+03-1.44373E+02-3.11234E+01-1.94103E+02-7.24363E+00 4.25037E+01
 -1       915-2.48090E+03-7.28747E+01-3.73278E+01-9.95763E+01-2.16455E+01-6.48555E+01
 -1       916-2.49314E+03-1.09870E+00-1.81510E+00-5.08486E+01-3.99658E+00 8.19005E+00
 -1       917 6.52932E+01 5.93286E+00-2.85103E+00-5.23698E+01 2.51440E+00-1.09840E+01
 -1       918 6.90403E+01 1.02007E+01 9.32729E-01-4.88568E+01 9.10214E+00-8.86138E+00
 -1       919 2.16588E+01 2.16333E+01 2.44736E+00-6.67856E+01-1.90651E+01-1.37071E+00
 -1       920-1.60166E+03-1.42317E+02 2.86144E+01-4.05060E+01 4.30731E+01 9.73823E+01
 -1       921-1.51157E+03-1.04127E+02-4.60570E+00 1.30742E+02-7.68105E+00-1.19091E+02
 -1       922-2.54400E+03 9.21970E+00-1.60027E+01-4.23348E+01 3.90967E+01-3.08381E+00
 -1       923 1.85229E+00 1.80850E+01 1.52825E+00 4.41221E+00 1.82872E+00 1.29101E-01
 -1       924-9.23982E+00 1.08269E+01-2.62554E+00-1.30659E+01-1.65298E+00 2.15032E+00
 -1       925 5.19205E+00 3.06585E+00-2.19932E+00 5.03846E+00-5.40978E-01 8.12867E-02
 -1       926-7.00863E+01 2.38951E+01 2.44837E+01 1.31923E+02 2.30988E+01-2.46461E+01
 -1       927 3.31141E+01-1.07665E+02 3.14940E+00 5.09056E+01 2.88230E+00-2.81052E+00
 -1       928-7.97320E+01 2.10773E+00-1.72581E+01 6.18706E+01 6.02502E-02-2.83311E+00
 -1       929-5.77779E+01 3.12277E+01 9.05780E-01 9.66067E+01 2.17252E-01 7.83067E-02
 -1       930-2.17241E+01-9.33823E+01 1.50809E+01 7.00699E+01-6.84678E+00 5.71384E+01
 -1       931-2.57305E+03-1.84871E+02 4.08665E+01-6.01281E+02 1.14196E+02 1.47605E+02
 -1       932-1.71682E+03-2.84163E+02-2.71931E+01 1.45790E+02-5.96855E+01 1.14248E+02
 -1       933-1.21253E+03-4.71036E+01 1.19549E+01 2.12836E+02 5.37093E+01-7.50313E+01
 -1       934-7.46941E+01 1.30135E+02-1.45489E+02-5.33702E+02-1.21587E+02-5.73784E+01
 -1       935-1.05279E+03 2.62713E+02 1.85776E+00 2.08676E+02 2.71410E+00 1.70130E+02
 -1       936-2.67029E+03-3.20689E+02-2.55866E+02 1.29340E+02 1.40056E+02-4.01707E+02
 -1       937-5.07785E+00 4.30819E-01 8.62914E-01-1.99006E+00 6.59829E-01-6.42029E-02
 -1       938-1.19426E+02-2.93407E+01 1.71177E+00 7.69028E+01-1.73172E+01-1.41316E+01
 -1       939 1.44352E+01 2.53353E+01 1.68518E+01 1.16772E+02-2.28706E+01-4.55859E+01
 -1       940-5.22640E+01 2.25629E+01 3.49297E+00 4.24894E+01 3.05259E+00-4.94903E+01
 -1       941 1.65315E+00 3.13705E+00 4.45948E-01 1.70402E+00 6.61255E-01 4.80191E-01
 -1       942 9.73088E+01-9.17994E+01-3.10329E+00 6.08918E+01-2.33336E+00-6.76485E+00
 -1       943 5.68783E+01-7.70890E+01 9.02788E+00 3.22952E+01-5.38702E+00-9.37734E+00
 -1       944-2.48271E+03-1.37275E+01-2.26160E-01-4.27426E+02 1.21904E+02-4.45896E+02
 -1       945-4.89507E-01 1.57557E+00-5.22668E-01-7.81182E-01-5.89457E-01-7.80124E-02
 -1       946-9.26887E+01-4.12931E+00-9.84761E+00 4.43993E+01 4.75210E+00-6.29486E+00
 -1       947-1.68686E+01-3.42664E+01 2.34241E+01 1.44945E+01-2.25967E+01-2.94896E+01
 -1       948-6.45819E+01 1.20083E+01 9.34103E+00 2.83677E+01-8.97298E+00 5.71275E+01
 -1       949-2.16721E+01-3.03342E+01 2.63165E+01 1.27938E+01 3.11806E+01 4.48081E+01
 -1       950-5.82395E+01 5.37005E+00-2.53989E+01-5.26264E+00-9.42591E+00 4.12960E+00
 -1       951 1.35239E+02 5.28185E+01 1.42295E+01-2.74939E+02-6.13610E+00 4.38962E+01
 -1       952-9.79564E+01 2.10739E+02 3.20961E+00-3.00917E+02-1.25458E+01 3.76799E+01
 -1       953 9.18741E+01 6.83807E+01-3.09818E+01-1.12730E+02 2.48130E+00-7.84133E+01
 -1       954-5.36890E+00 1.38515E+01-4.64748E+00-6.56317E+01-1.46765E+01 1.83983E+01
 -1       955 8.07725E+01-3.73586E+00 7.41271E+00-6.04424E+01 1.08978E+01 1.83751E+00
 -1       956 6.71006E+00 3.72634E+01 3.55185E+00-7.37345E+01-2.01596E+00 8.15162E-01
 -1       957 7.68909E+01 8.68105E+00 1.05186E+01-7.21899E+01 5.88897E+00-3.06874E+00
 -1       958 8.78237E+00 1.70990E+01 2.92843E+00-6.95095E+01-2.54719E-02 2.33517E+00
 -1       959 5.43577E+01-1.10331E-01 2.22800E+01-6.92102E+01-1.87328E+00-2.52261E+00
 -1       960-8.42967E+01 2.18510E+01 7.02425E+00-2.45625E+01-9.53466E+00 7.93444E-01
 -1       961-2.88596E+02 1.46611E+02-8.54229E+01-8.90132E+01 1.41750E+01-1.27816E+02
 -1       962-4.19794E+02 2.28355E+01 3.17570E+01 5.62276E+01-3.96594E+01-4.41235E+01
 -1       963-1.98418E+03 1.16086E+01 1.94787E+01 4.09608E+01 5.51000E+01 3.36477E+01
 -1       964-2.34450E+03-5.05697E+01 1.08429E+01-8.19730E+01-9.98169E+00-9.42959E-01
 -1       965-2.44058E+03-2.59277E+00-9.09838E+00-3.49716E+01 2.91319E+00 1.42692E+01
 -1       966-2.54313E+03 1.62700E+01-7.58098E+00-7.96753E+01 2.55067E+00-5.64147E+00
 -1       967-2.47852E+03-1.85090E+01-3.50930E+00-7.74519E+01-9.79791E+00-2.42741E+00
 -1       968-2.55621E+03 2.65040E+01-4.65035E+00-7.69497E+01 3.07337E+00 2.56172E+00
 -1       969-2.47023E+03-4.92955E+01 1.10177E+01-5.39928E+01 6.47916E+00 7.70572E+00
 -1       970-2.63717E+03-9.46247E+01 7.42426E+01-1.38003E+02 1.19237E+01-2.28164E+02
 -1       971-2.32484E+03-2.04047E+02-1.16892E+02-1.67255E+02-5.43588E+00 3.58226E+01
 -1       972-1.01795E+03-2.75190E+02-1.11164E+02 1.14352E+02-1.17079E+01 7.17775E+00
 -1       973-1.93724E+01-8.08725E+01 1.24829E+01 4.73179E+01-3.22674E+01 7.74867E+01
 -1       974 2.01161E+00 2.03976E+01 2.29287E+00 6.74095E+00-2.21694E+00 2.69750E+00
 -1       975-1.64418E+01 2.59377E+01-3.79805E+00 2.43105E+01 7.67079E+00-4.05790E+00
 -1       976 1.06633E+02 1.08045E+02-2.76903E+00 1.12779E+02-2.21000E+00-6.08654E+00
 -1       977 4.54256E+02 1.40870E+02 5.32928E+01 1.28073E+02-5.92334E+01-2.96467E+01
 -1       978 6.67686E+02 2.61273E-01-2.34723E+00 1.14223E+01 4.11495E+01 1.51805E+01
 -1       979 5.08145E+01-5.18269E+01 6.05139E+01-1.65309E+02-2.12146E+01-7.96027E+01
 -1       980-3.07690E+02 1.42452E+02-3.18518E+01-2.02300E+02-2.34892E+01-9.20844E+01
 -1       981-3.77768E+00-2.60081E+02-3.32905E+01-2.88523E+01 6.13623E+01-8.81181E+01
 -1       982 5.34864E+01-4.72914E+02-1.14487E+01-3.40730E+02 6.76388E-01 6.78350E+01
 -1       983-1.76858E+02-6.98575E+01 3.29794E+01-4.14419E+02-2.36953E+01-2.23380E+01
 -1       984-4.14143E+02 2.78509E+02 2.60704E+01-4.05568E+02 1.70744E+01 1.89865E+01
 -1       985-3.05620E+02-1.59670E+02-2.59475E+01-3.52776E+01 5.62964E+01 4.88919E+01
 -1       986-5.94613E+01-1.02481E+02 1.27235E+01 1.35020E+02-2.61598E+01-1.12417E+01
 -1       987-2.36622E+01-1.11062E+01-1.16795E+01 7.42483E+01-2.23578E-01 4.35582E+00
 -1       988-2.78986E+01-9.45958E+01 3.60771E-01 6.80816E+01-3.98210E+00 3.05530E-01
 -1       989 3.43877E+01 7.14587E+00 5.77747E+00 1.11277E+02-1.82916E+01 1.87493E+01
 -1       990 1.45325E+02-5.52594E-01 2.42076E+01-3.07116E+01 1.07108E+02 4.44279E+01
 -1       991 2.92598E+02-1.69039E+02-9.44284E+00-2.53448E+02-5.87054E+01-7.12123E+00
 -1       992-7.10345E+01 1.86185E+02-2.98654E+01 1.41248E+01 3.03643E+01 1.71833E+02
 -1       993-1.34630E+02-8.36925E+00-8.36193E+00 1.51794E+02-2.83550E+01-1.10187E+00
 -1       994 2.38195E+01-7.80321E+01-2.25319E+01 1.35511E+02 2.66106E+01-2.27699E+01
 -1       995-7.49771E+01-9.31234E+00-5.51862E-01 1.65489E+02 4.99822E+01 3.35695E+00
 -1       996 1.11556E+02 3.02571E+01 7.49756E+01-3.57818E+01 1.21920E+01-3.25275E+01
 -1       997-2.48150E+03-2.21609E+00-4.67529E+00-5.39561E+01-6.19348E+00-9.89076E+00
 -1       998-2.57103E+03 3.79789E+01-8.30169E+00-5.37874E+01 1.47764E+01-9.22768E+00
 -1       999 2.17760E+01-7.71223E+01 1.08789E+00 1.02997E+02 7.62599E+00 9.51563E+00
 -1      1000-1.67670E+03-9.70168E+01-4.83970E+00-2.37018E+02 3.38158E+00 1.10981E+02
 -1      1001-2.55406E+03 1.82333E+01 2.40938E+00-4.68621E+01-4.35636E+00 9.20774E-01
 -1      1002-2.48201E+03-2.47034E+01-3.24226E+00-5.64996E+01-7.85568E+00 1.73617E+00
 -1      1003 3.82193E+00 3.01650E+01 2.85442E+01-2.42524E+01 7.62522E+00-5.78015E+00
 -1      1004-1.27742E+02-1.77455E+01-2.66568E+01 1.24788E+02-1.38542E+01 5.23455E+01
 -1      1005-2.71389E+01 3.27187E+00-2.71244E+00 5.54080E+01 7.75430E+00-5.29173E-01
 -1      1006-9.44009E+01 5.53106E+01-2.65111E+00 9.90534E+01-3.19759E+01-2.88112E+01
 -1      1007 7.64407E+00-8.70107E+01 2.61048E+00 1.27453E+02 2.35787E+00-3.28738E+00
 -1      1008 2.43359E+01-3.39681E+01-1.25005E+01 8.68312E+01-9.40075E+00-1.57856E+00
 -1      1009 1.36849E+01-7.04889E+01-1.75936E+01 7.35547E+01-1.74899E+00-5.92347E+00
 -1      1010 7.97979E+00 5.78633E+00 1.14229E+00 6.29662E+00 1.29626E+00 5.69472E-01
 -1      1011 1.10092E+01 5.25156E+01 2.74014E+00-5.54206E+01-9.20141E+00 1.06931E-01
 -1      1012 8.29920E+01 6.55429E+00 6.49844E+00-4.54627E+01 1.38460E+01-2.53309E-01
 -1      1013-2.67329E+03-1.14586E+02-9.52789E+01-5.08692E+02-1.83401E+02 3.93106E+01
 -1      1014-2.59380E+03-1.57967E+02-8.84279E+00 8.86731E+01 1.02280E+02 2.01345E+02
 -1      1015 5.60861E+01-8.40544E+01 2.27191E+01 1.13438E+02-3.08675E+00 3.41879E+00
 -1      1016-8.11370E+01 2.04952E+01 1.22961E+01 7.71983E+01-8.94589E+00 1.49589E+01
 -1      1017 1.96071E+00 3.62378E+00-3.56000E-01 2.05595E+00-5.13898E-01-1.04297E-01
 -1      1018-9.31929E+00-7.13204E+01 8.26206E+00 3.79663E+01 5.68677E+01-2.85944E+01
 -1      1019-9.53234E+00-4.51133E-01-2.75953E-01-2.78215E+00-1.67902E+00-7.38535E-01
 -1      1020 2.60904E+00 3.87269E+00 2.36006E+00-1.17419E+00 1.21285E-01 6.45413E-01
 -1      1021-5.65556E+01 2.38624E+01-3.54968E+00 1.32029E+01-8.19622E+01 4.26261E+01
 -1      1022-1.97795E+01-3.62869E+01 1.81441E+01 3.17212E+01 3.42052E+01 2.78943E+01
 -1      1023-6.92839E+01 1.87602E+00-1.59528E+01 1.10665E+01-5.72772E+01-5.94459E+00
 -1      1024-3.68385E+01-4.35017E+01 7.28749E-01 6.56457E+00 3.80741E+01-1.00966E+01
 -1      1025-4.19515E+01 7.51127E+00 7.78369E+00 5.86483E+01-1.11968E+00-3.64645E+00
 -1      1026 4.69478E+01-8.89307E+01-1.66497E+00 1.10547E+02 7.52445E+00 3.88893E-01
 -1      1027 1.94370E+01-3.24399E+02 8.75240E-02 1.12469E+02-6.69584E+00-2.39197E+00
 -1      1028-1.03348E+01-2.74613E+01-3.90789E+00 9.99768E+01 5.20158E+00 3.57334E+00
 -1      1029-2.54754E+01 7.74831E+00 2.41678E+00 2.35573E+01-9.85332E+00-2.39253E+00
 -1      1030-2.18586E+01-2.09799E+02 5.72702E+00 2.12800E+00 4.99786E+00-1.16066E-01
 -1      1031-1.34931E+02-7.29296E-01 2.01801E+00-1.00752E+02 2.25961E+01 4.06165E+01
 -1      1032-2.04928E+01-3.91373E+01-4.41028E+01-9.11754E+00 9.82053E+00 1.02739E+01
 -1      1033 2.36448E+01-7.83801E+00-2.51973E+01 2.32079E+01 9.99774E-01-6.15037E+00
 -1      1034-4.59359E+00-9.97669E+00-2.98337E+01 3.99099E+00-2.39210E+00 6.27996E+00
 -1      1035 1.33470E+02 7.78093E+01 1.00680E+02 5.47545E+01-3.22251E+00 1.66270E+01
 -1      1036-1.44304E+01-4.78834E+00-1.51013E+01-1.11788E+00 1.96144E-01-4.73912E+00
 -1      1037-9.58678E+01-4.34941E+01 3.92832E+00 1.60042E+01-7.79780E+00-1.14132E+01
 -1      1038-9.25161E-01-6.90728E-02-1.96994E+00 8.65939E-01-1.98427E+00 1.87959E+00
 -1      1039 1.26088E+01 1.21163E+01 2.60631E+01-6.09874E+00 3.03551E+00 4.23117E+00
 -1      1040 2.06249E+01 1.42497E+01 1.57622E+01-1.20704E+01-2.40034E+00-5.47874E+00
 -1      1041 4.39023E-01 1.84184E-01-5.44521E-02-2.62981E-01 1.44390E-01-1.56634E-01
 -1      1042 8.50424E-01 1.56691E+00 2.47021E+00-1.96877E+00-1.82612E-01 3.00189E-01
 -1      1043 5.02400E-02 1.43667E-01 1.73982E-01 7.01315E-01-4.12789E-02-5.05554E-01
 -1      1044-2.15436E-01-6.94629E-02-3.21249E-01 1.80995E-02-3.43101E-01 1.56657E-01
 -1      1045-2.03561E+00-6.03356E-01-2.90495E-01 2.23648E-01-6.08970E-01-1.79094E-01
 -1      1046-4.86961E+01 3.55388E+02 7.15157E+01-1.60297E+00 6.52049E+00-1.06371E+01
 -1      1047-3.29498E+00-2.27251E+02-4.54202E+01 6.25087E+00 1.99848E+01 3.37836E-01
 -1      1048 9.21622E+00-4.23293E+02-7.04957E+01-2.84059E+01-1.59020E+01-2.58414E+00
 -1      1049 4.64275E+01 8.20099E+02 1.07946E+02 1.68163E+00-3.04644E+01 1.51801E+01
 -1      1050 5.74709E+01 7.84061E+02 1.77495E+02-2.63656E+01-1.49357E+01-9.56678E+00
 -1      1051-8.47963E+00 6.62061E+02 2.02458E+01-4.91691E+00 9.76371E+00 1.95505E+00
 -1      1052 2.26239E+01 7.62164E+02 3.47766E+01 1.78388E+01 1.10542E+00-2.05914E+01
 -1      1053 3.55020E+01 4.23526E+02 2.88810E+00 2.03974E+00-9.13466E+00 2.55790E+01
 -1      1054 2.08878E+01 5.32425E+02 2.31359E+01-7.88973E+00-6.49460E+00-7.40406E+00
 -1      1055 2.50920E+01-4.01463E+02-2.15930E+01 4.07274E+00 8.25818E+00 1.32473E+01
 -1      1056 3.47084E+01-3.10495E+02-2.86740E+00-4.79729E+00-2.24705E+00-1.56384E+01
 -1      1057-1.60448E-01-4.53512E+02-5.80039E+01 3.20357E-01-2.58541E+01-4.26090E+00
 -1      1058 2.29655E+01-1.56995E+02 6.39197E+00-3.65230E+00-1.73003E+00 1.19911E+01
 -1      1059 5.21619E+00-5.97433E+01-1.40182E+01 2.74058E+00-1.07023E+01-1.91635E+01
 -1      1060-2.29641E+01 2.31180E+02-1.42398E+01-6.20469E+00-2.46863E+00-1.03662E+01
 -1      1061 1.00747E+02 1.60008E+02 3.03595E+01-1.12342E+01 1.02099E+00 2.33586E+01
 -1      1062-3.16802E+02-2.06463E+01-2.82953E+01 2.68337E+01-1.39245E+01-2.32147E+01
 -1      1063-2.32379E+03-3.72988E+01-1.78564E+01 4.02992E+01 3.68204E+01-1.09204E+02
 -1      1064-2.09926E+03-5.05557E+01 7.52061E+01-2.79276E+01-1.12480E+02 5.00981E+01
 -1      1065-1.18506E+03 3.94509E+01-3.20262E+00-6.88340E+00-5.95150E+00 1.66570E+00
 -1      1066-1.09932E+03-5.33228E+01-3.76952E+01 3.03422E-01 7.00754E+00-1.64113E+00
 -1      1067-1.35898E+03 1.69301E+01-5.96214E+00-5.38678E+00-4.94981E+00 3.43818E+00
 -1      1068-1.28796E+03-3.80751E+01-2.72807E+01-1.06656E+00 5.31961E+00 1.01900E-01
 -1      1069-1.44175E+03-1.31973E+01-2.15779E+01 1.52510E+01 4.77548E+00 1.31735E+01
 -1      1070-1.42062E+03-3.47841E+01-1.88551E+01 3.16369E+00 8.75359E+00-3.36541E+00
 -1      1071-1.28966E+03 8.41002E+01 1.17856E+01 2.88129E+01 3.85473E+01 1.05075E+01
 -1      1072-1.42211E+03-1.13916E+02-5.23989E+01-1.10715E+01-1.60415E+01-1.11762E+00
 -1      1073-1.11889E+03-3.16155E+01 1.47000E+01-1.27752E+01 2.84044E+01-1.36432E+01
 -1      1074-1.14852E+03 1.34210E+02 5.99734E+01 1.58131E+01-3.08182E+01 3.93291E+00
 -1      1075-1.08195E+03 2.02383E+01 3.39744E+00 5.79736E+00-1.02108E+01-5.06123E+00
 -1      1076-1.01598E+03 9.92283E+01 3.61954E+01 2.74367E+01 1.06738E+00 7.31655E+00
 -1      1077-1.22374E+03 6.63703E+01 1.95749E+01-5.43476E+00-5.87225E+00-9.91376E-01
 -1      1078-1.16084E+03-2.88080E+01-1.70786E+01 7.58690E-01 5.13844E+00 1.87959E+00
 -1      1079-1.80031E+03 3.48276E+01 7.03355E+01 6.66196E+00 1.31544E+01 3.47018E+01
 -1      1080-5.39543E+02-1.19521E+00-7.12722E+01-3.38760E+01 5.54203E-01 2.03470E+01
 -1      1081-1.37388E+03-5.16617E+01-3.03333E+01 8.13369E-02 3.32575E+00-6.75036E-01
 -1      1082-1.72777E+03-2.69885E+01-1.50316E+01 6.49504E+00-2.04239E+00 1.23433E+01
 -1      1083-6.39942E+02-5.97611E+00-4.06281E+01 2.42985E+01-1.06205E+00-2.41280E+01
 -1      1084-7.88696E+02 5.83396E+01-1.65528E+01-1.69279E+01-6.03328E-01 4.34538E+00
 -1      1085-1.61068E+03 4.58327E+01 2.44552E+01-5.25936E+00 5.82416E+00-2.43957E+00
 -1      1086-1.52826E+03-1.77384E+01-4.26507E+00-4.45811E+00 3.50942E+00 7.97340E-01
 -1      1087-8.95471E+02-2.28162E+01-3.50625E+01-3.11905E-01 4.68448E+00 2.45764E-01
 -1      1088-9.90479E+02 5.51887E+01-6.51178E+00-1.37273E+01-9.03509E+00-1.40985E+00
 -1      1089-1.42076E+03 6.87095E+01 2.16169E+01-5.41822E+00-1.86995E+00-2.88226E+00
 -1      1090-3.12097E-04-1.97169E-04-1.54843E-03 6.02249E-05-3.27956E-04 1.20192E-04
 -1      1091-6.53809E-05 1.01501E-03-1.60810E-03-4.81498E-05 6.98698E-04 4.37474E-06
 -1      1092-1.30582E-04-5.58127E-04 1.56063E-03-4.18707E-06 8.66905E-05-1.04827E-05
 -1      1093 1.73861E-05-1.74595E-04 2.35849E-03 1.16360E-05 1.41610E-04-8.92088E-05
 -1      1094 1.65025E-04 1.35505E-03 8.40630E-04-4.91241E-05 6.57131E-04-4.48000E-05
 -1      1095-1.69065E+02-2.35677E+03-7.71692E+02 1.12084E+03-1.50751E+02 1.29831E+02
 -1      1096 1.20929E+02 8.48078E+01 9.97978E+01-1.00098E+02 5.68968E+01-2.13829E+00
 -1      1097 1.65924E+03 2.29771E+02 4.92249E+02-1.38195E+03-2.50053E+01-5.58952E+01
 -1      1098 2.22593E+00 4.94657E+00-1.07747E+00 1.49978E-01-2.69167E+00-6.02483E-01
 -1      1099-8.87105E+01-2.72512E+01-3.56972E+01 8.23054E+01 1.53897E+01-2.15228E+01
 -1      1100 1.41659E+02 1.90523E+02 5.09739E+01-1.24558E+02-2.23995E+01 2.04880E+01
 -1      1101-2.86192E-02-4.87420E-02 1.91465E-01 7.97549E-03 1.15453E-01-1.38600E-02
 -1      1102 4.65372E-02-1.25659E-01-4.73761E-01-1.44609E-02-1.40541E-01-9.62148E-03
 -1      1103-3.64681E-03-1.20299E-01 1.39182E-01-1.40388E-02 8.12422E-02-8.02044E-03
 -1      1104-4.91217E-03-1.08937E-02 8.71103E-03 4.34480E-03 5.32498E-03 2.27702E-03
 -1      1105-2.62650E-03-4.43859E-02 3.97270E-03-1.01002E-02-6.71943E-03-2.96612E-03
 -1      1106-4.47541E-04-2.30773E-04 7.06930E-04 1.03122E-04-6.42356E-04-9.91076E-05
 -1      1107 1.33819E+03-2.03457E+03-1.85565E+02 2.86232E+02-1.40331E+01-1.41849E+00
 -1      1108-1.21677E+02 1.39524E+02-6.76978E+01-1.06174E+02-1.79749E+01 4.38390E+01
 -1      1109 1.46238E+02 9.52325E+01 2.68857E+01-7.93482E+01-7.52668E+01 3.67111E+01
 -1      1110-7.15474E+01-5.58189E+01-1.81218E+01 7.88749E+01-1.83762E+00-9.09549E+00
 -1      1111-6.92757E+00-8.56321E+00-5.64404E+00 2.23219E+00-2.23415E+00-1.55258E+00
 -1      1112-3.88556E-04 1.18996E-03-7.79665E-04 5.67121E-05 8.50033E-04-1.70020E-04
 -1      1113 1.18807E+03-1.05135E+03-1.60020E+01 1.19608E+02 1.23049E+02-1.88023E+01
 -1      1114 2.50440E-04-2.03429E-04 3.31407E-03-3.93313E-04 3.97476E-03 3.65382E-05
 -1      1115 2.36004E-04-2.08458E-03 4.23518E-03-6.65398E-05 2.27445E-03 2.02906E-05
 -1      1116-1.25972E+02-1.52717E+03-4.78863E+02 1.66134E+02-1.19968E+02-5.85087E+01
 -1      1117-8.99496E-04-3.44901E-03 2.77074E-03 2.33805E-04 1.19920E-03 9.30057E-05
 -1      1118-1.27225E-03-5.37911E-03 5.93037E-04-7.23237E-04 2.47308E-03-4.95848E-04
 -1      1119-1.17958E-03-1.84657E-05-1.36065E-02 1.09606E-02-2.23434E-03 5.98778E-03
 -1      1120 4.09026E-04-7.07322E-03 2.16444E-03 1.79030E-04-3.10841E-03-5.76262E-04
 -1      1121 1.58117E-03 5.37510E-03 1.40497E-02 5.20698E-04 1.43137E-02 8.00652E-04
 -1      1122 2.28099E+00 1.77736E+00 2.89077E-01-1.20979E+00-5.05748E-01 2.34908E-01
 -1      1123 1.28522E+03 3.35513E+03 1.44218E+03 5.55557E+02 5.78348E+01 2.35036E+01
 -1      1124-2.61410E+02-7.79396E+01-1.59659E+02 1.09329E+02 2.48562E+01 1.10733E+02
 -1      1125 4.94925E+02-6.27986E+01-1.40298E+02-9.37395E+02-3.46602E+01-1.42865E+02
 -1      1126-8.80829E+00-5.89644E+00-3.71999E+00-2.75243E+00-2.19919E+00 1.03682E+00
 -1      1127 5.68607E+00 1.42510E+00 1.21403E+01 7.33692E-01-1.55519E+00-3.92667E+00
 -1      1128-3.13033E+00-4.87463E+01-4.84349E+01-1.53500E+01-1.79001E+01 7.42810E+00
 -1      1129 2.58721E-02-6.39562E-02 2.35236E-01-7.56959E-02 1.78399E-01-5.67677E-02
 -1      1130-8.58783E-02 2.03779E-02-2.66184E-01-5.17377E-02-6.37464E-02-9.84269E-02
 -1      1131-1.19216E-02-8.89378E-03-2.28053E-02-1.80308E-02-2.71828E-04-2.87887E-02
 -1      1132 1.00065E-02-1.26712E-01 1.48363E-01-1.10121E-01 8.97071E-02-3.47600E-02
 -1      1133-1.18118E-03-2.75450E-02 2.90392E-03 1.76607E-02-7.80981E-03 7.99684E-03
 -1      1134-7.36011E-04 1.18523E-03-1.47829E-03-3.12518E-04 9.80407E-04-1.66206E-04
 -1      1135 1.16845E+03 2.62875E+03 9.68278E+02 2.64796E+02 2.95379E+02 1.60960E+02
 -1      1136-1.37067E+02-6.75441E+02-2.10804E+02 7.96598E+00-6.48476E+01 1.72140E+01
 -1      1137 1.31825E+00-7.97482E+01 1.80019E+01-1.17078E+01-8.20030E+00-8.90250E+00
 -1      1138-3.84185E+00 1.36674E+01-2.95518E+00 7.00786E+00 9.00531E+00 1.71644E+00
 -1      1139 9.95042E-01 5.35299E+00-1.79510E+00-1.49960E-01-2.21390E+00 7.58918E-01
 -1      1140 1.21942E-03-1.31262E-02 1.06944E-02 2.67026E-04 5.24091E-03 2.23062E-04
 -1      1141-1.43035E-04 9.03371E-05 1.12833E-03-7.26081E-05-4.39435E-04-2.08483E-05
 -1      1142 2.05547E+02 2.02656E+03 6.19392E+02-4.09172E+01 1.63944E+02-9.27789E+00
 -1      1143 4.14224E-04-1.77725E-03 4.48824E-03 2.16755E-04 2.12452E-03 7.38790E-05
 -1      1144-1.46616E-04-1.24540E-03 2.51378E-03 1.10069E-04 3.50114E-03 1.01803E-04
 -1      1145-2.72913E+02 1.76378E+03 5.74034E+02 1.10469E+03-8.67471E+01-2.30168E+01
 -1      1146-6.23647E-04-1.65121E-03 2.08772E-03-6.46466E-04 3.72448E-03-6.01841E-05
 -1      1147-1.19695E-03-4.89115E-03 2.36499E-03 3.29179E-05 1.18748E-03-6.98226E-05
 -1      1148 3.60068E-03 4.93180E-03 1.78014E-02 9.44007E-04 1.44044E-02 3.65931E-04
 -1      1149-1.94753E-03-5.85673E-03 2.08072E-03-1.33236E-04-2.66241E-03-2.96010E-04
 -1      1150-6.23434E-01-4.78557E-01-1.29309E+00 1.02733E-01-6.42153E-01-6.22573E-01
 -1      1151 2.89092E+03 3.60545E+03 2.43234E+03 1.71245E+02 3.01784E+01 2.20273E+02
 -1      1152 3.03247E-04-2.52400E-05 4.24451E-04-1.36782E-04 3.00973E-04-3.04623E-04
 -1      1153-1.52498E+02-1.32118E+03-5.99349E+02-7.01284E+01-5.48507E+02 1.07405E+02
 -1      1154 1.36950E-04 2.49653E-03-1.21255E-03 2.06591E-04-2.10779E-04-2.81043E-04
 -1      1155 5.31229E+02 1.56050E+02 2.46018E+02-4.04663E+02-8.16668E+01-2.68051E+02
 -1      1156 1.16575E+02-3.30359E+02-8.57339E+01-2.68937E+02-1.64008E+02-1.53791E+02
 -1      1157 3.97168E-04 1.09881E-02 4.66177E-06 8.55145E-04 2.57612E-03 3.40960E-04
 -1      1158 3.46496E-05 8.89147E-03-1.25989E-03 1.09209E-03 1.54309E-03 7.91878E-04
 -1      1159 7.43798E+00-4.34088E+01 8.81264E+00 5.74573E+00 1.14953E+00-2.18757E+00
 -1      1160 9.22106E+01 1.25876E+02 1.31949E+02-3.10922E+01 9.66509E-01-4.95171E+01
 -1      1161 1.83016E+01 1.62933E+01 5.37016E+00 5.59168E+00 5.21094E+00-4.27844E+00
 -1      1162 2.67962E+01 2.46705E+01 1.49849E+01 9.52262E+00 6.04576E+00 7.86493E-01
 -1      1163 1.74183E+00 5.24043E+00 2.61398E+00-2.76833E-01 4.55829E-01-1.04489E-01
 -1      1164 7.75641E+00 1.02675E+01 2.73821E+00 4.07729E-01 3.57853E+00-1.60860E-01
 -1      1165 1.30968E-03 2.22338E-02 4.32962E-03 1.27357E-03 9.90700E-03 8.15475E-04
 -1      1166 1.56506E-04 1.04078E-02 2.61080E-02 1.90697E-03 2.67855E-02 2.17212E-03
 -1      1167 1.64138E-02 6.35333E-02 4.54191E-02 4.70059E-03 5.05476E-02 2.23253E-03
 -1      1168 1.46096E-02 5.99101E-02 4.30763E-02 2.47370E-03 4.90258E-02-1.01376E-03
 -1      1169 3.30811E-01 6.55258E-01 1.06652E-01-4.16472E-01 3.32244E-01 5.40571E-01
 -1      1170-1.03773E+00 3.77176E-02-4.33275E-01-3.68710E-02 1.11184E-01-6.89852E-01
 -1      1171 2.20455E-03 8.34374E-02 2.42811E-02 9.65716E-03 6.26933E-02 1.53329E-03
 -1      1172 8.65793E-03 1.74119E-01 1.50883E-02 2.06262E-02 1.15397E-01-2.92780E-03
 -1      1173 2.21939E+02 1.43220E+02 1.60784E+02 1.22144E+02 1.67940E+01 6.97236E+01
 -1      1174 2.30456E-02 2.24897E-01 1.02502E-01 7.20446E-02 1.76062E-01 3.45601E-02
 -1      1175 7.23273E-03 1.96335E-01 7.52800E-02 1.81386E-02 1.56644E-01 7.26144E-03
 -1      1176-6.47177E-02 1.35132E-02 4.26307E-01 6.45159E-02 4.33573E-01 3.25600E-02
 -1      1177 2.73341E-01 6.23498E-01 5.39227E-01-1.03816E-01 3.74280E-01 1.16306E-01
 -1      1178-2.17375E-02 1.90023E-01 1.57957E-01 6.40336E-02 2.10497E-01 3.75150E-02
 -1      1179 2.66319E+00 8.80098E+00 2.77622E+00-3.89260E-02 2.68213E+00 3.16452E+00
 -1      1180 4.08599E-03 1.02474E-01 1.77927E-02 1.11993E-02 7.10680E-02 2.52687E-03
 -1      1181 2.56393E-01 5.76868E-01 5.85799E-01 3.38021E-01 4.58324E-01 4.28374E-01
 -1      1182 2.35590E-03 3.09651E-02 8.05864E-03 2.95268E-03 1.56954E-02 1.59461E-03
 -1      1183-1.77455E-02 1.87072E-01 2.28256E-01 1.41960E-01 2.49516E-01 9.10282E-02
 -1      1184 8.71134E+02-3.33443E+01 1.61302E+01 1.24358E+01 3.92220E+00-7.70730E+00
 -1      1185 1.05767E+03-1.55677E+01 3.99300E+01 3.07487E+01-4.61522E+00-4.25967E+00
 -1      1186 1.12363E+03-5.38406E+01 1.27642E+01 1.74133E+01 1.43880E+00-1.00392E+01
 -1      1187 1.24589E+03 3.11638E+01 3.06219E+01 1.03197E+01-4.75725E-02-7.55104E+00
 -1      1188 1.61221E+03 5.84840E+00 1.86295E+01 1.33680E+01-3.50617E-01 2.35259E+00
 -1      1189 1.71757E+03 2.62163E+01 2.57253E+01 3.22641E+00-1.23243E+00-3.79340E+00
 -1      1190 1.80927E+03 1.77626E+01 1.51581E+01 1.09700E+01 1.50892E+00 1.30816E+00
 -1      1191 1.86478E+03 1.32373E+01 7.23198E-01-3.36797E+00-5.55190E+00-3.58030E+00
 -1      1192 1.94526E+03-1.60675E+01-3.49838E+01 1.49268E+01-5.23804E+00-2.77210E+01
 -1      1193 2.11502E+03-3.90639E+01-1.40405E+02 3.69011E+01 1.58480E+01-1.38031E+02
 -1      1194 1.95855E+03-1.22403E+01-1.52592E+02 1.07347E+02-2.23729E+01-1.79917E+02
 -1      1195 3.28889E+03-3.33288E+01 3.75472E+02-1.47053E+02-1.33598E+02-1.50307E+02
 -1      1196 2.91777E+03-3.85326E+02 4.68743E+02-2.72526E+02 5.86848E+01 4.80908E+01
 -1      1197 3.00973E+03 3.48590E+02 4.60972E+02-6.05157E+01 3.72931E+01-8.05555E+00
 -1      1198 1.94561E+03-1.69638E+02-2.74138E+02-6.83331E+01-3.89754E+00 1.34786E+02
 -1      1199 2.23696E+03 9.13509E+01-6.09814E+01 5.47977E+01-4.84574E+00 1.09393E+02
 -1      1200 1.50122E+03 4.80047E+01 3.47336E+01 7.65159E+00-1.76163E+00-2.29230E+00
 -1      1201 3.09301E+03 1.69244E+02 4.47750E+02-7.10829E+01 5.05032E+01-8.98690E+01
 -1      1202 1.36297E+03-1.43526E+01 1.16705E+01 1.53622E+01-1.38145E+00 2.49471E+00
 -1      1203 1.95172E+03-5.23477E+01-1.19351E+02 3.72193E+01 1.49660E+01 1.36668E+01
 -1      1204 3.47941E+02-2.16533E+03-8.51608E+02 5.65897E+02 5.16277E+02-2.38060E+02
 -1      1205-1.00125E-06 9.60623E-04 1.62337E-04-5.46816E-05-5.32293E-04-3.63978E-05
 -1      1206-5.19100E+01-4.43181E+02-1.23674E+02-1.46642E+02-3.54008E+02-4.07742E+00
 -1      1207-9.58986E-05 1.39310E-03-2.00232E-04-1.98360E-04-9.82846E-04 2.78323E-06
 -1      1208-1.50183E+02-2.16440E+02-1.68456E+02-1.38112E+02-5.65917E+01-2.50972E+00
 -1      1209 1.01932E+02 1.11545E+02 1.43558E+00-1.62917E+02 3.29885E+01-1.06592E+02
 -1      1210 6.53684E-04 4.41319E-03 6.82929E-04-5.07281E-04-1.68226E-03 9.27165E-05
 -1      1211 5.54651E-04 3.98800E-03 4.00178E-04-3.68305E-04-1.56124E-03 9.96361E-05
 -1      1212 8.06049E-01 5.91315E+01 4.12685E+01 1.24467E+01 2.81189E+01 1.86641E+00
 -1      1213-1.35284E+02-1.90978E+02-1.03238E+02 8.45645E+01-1.68942E+01 1.15095E+01
 -1      1214-2.83437E+01-3.13159E+01-9.84215E+00 1.42496E+01 1.89282E+01 2.71309E+00
 -1      1215-3.76812E+01-4.62739E+01-1.73642E+01 1.96357E+01 1.89117E+01 9.23671E-01
 -1      1216-7.89701E-01-4.66114E+00-2.98486E+00 5.38012E-02-1.75540E-01-2.64135E-01
 -1      1217-3.90105E+00-1.51555E+01-9.91706E-01 1.59501E+00 1.30791E+01 1.29094E+00
 -1      1218 1.03640E+00 2.68881E-02-7.82206E-01-7.57106E-01-5.05148E-01-1.37202E-01
 -1      1219 7.03951E-01-1.91570E-01-1.02980E+00-8.03656E-01-6.81050E-01-4.78109E-01
 -1      1220 7.19657E-06 6.45920E-04-1.50659E-03-3.45278E-04-9.24074E-03-1.64133E-04
 -1      1221 9.23136E-03 2.92695E-02 6.60062E-03 6.64815E-03-1.55100E-02 3.50054E-03
 -1      1222 1.07666E-03 6.24476E-03 1.30347E-03-2.98344E-04-3.33026E-03 1.51195E-04
 -1      1223-4.71513E+02-2.60553E+02-1.61069E+02 2.23819E+02-1.14688E+01 6.32936E+01
 -1      1224-1.50582E-02-1.15213E-01-4.26623E-02 3.70049E-02-8.38531E-02 1.08066E-02
 -1      1225-9.29524E-03-1.70330E-01-9.92174E-03 8.12000E-02-1.50778E-01 4.51730E-02
 -1      1226 1.78877E-02-1.77285E-01-2.87089E-02-3.99131E-02-1.57792E-01 3.07531E-03
 -1      1227-3.84771E-01-1.52914E-01-2.31224E-01 1.91567E-01-3.40154E-02-2.59372E-02
 -1      1228 2.58193E-01-2.82816E-01-7.88120E-01 7.45377E-03-2.91522E-01 2.87588E-01
 -1      1229-2.03625E-02 1.69899E-01-6.59956E-03 2.53372E-01-3.34252E-01 8.85156E-02
 -1      1230 5.69835E-02 1.79417E-01 5.20513E-02-5.45846E-02-2.89817E-01-1.47015E-02
 -1      1231 1.58967E+01-4.94870E+00 5.83244E+00-5.10473E+00 8.59085E+00-1.39986E-01
 -1      1232-8.77945E-02-1.58702E-01-4.45851E-01-2.12562E-02-8.90138E-02-9.56747E-02
 -1      1233 7.33490E-04 7.25484E-03 1.54496E-03-8.60916E-04-4.57869E-03 2.16151E-04
 -1      1234-5.06507E+03 2.38810E+02-3.23472E+02 1.01455E+01 1.46733E+02-2.31117E+02
 -1      1235-4.70623E+03-6.63332E+01 6.98965E+01 2.13741E+01-6.32992E+01-1.85826E+02
 -1      1236-4.50325E+03 3.52656E+01 1.78222E+02 3.86608E+01-3.60620E+01-7.27762E+01
 -1      1237-4.39638E+03-3.33606E+01 5.20214E+01 4.91441E+01 1.44694E+01-4.38036E-01
 -1      1238-4.32262E+03-2.22717E+01-2.89130E-01 1.28743E+01 2.46090E+00 9.45882E+00
 -1      1239-4.15660E+03 3.16574E+01 1.37108E+01 6.33355E+00-6.72458E+00-1.43982E+00
 -1      1240-4.08714E+03-1.33958E+02-4.93442E+01 5.07031E+00 2.86871E+00 4.43942E+00
 -1      1241-3.69936E+03 6.29936E+01 3.42867E+01 1.00302E+01-8.42411E+00-1.36940E+00
 -1      1242-3.62870E+03-3.12403E+01-1.89734E-01 1.11999E+01 9.64131E+00-1.24615E+01
 -1      1243-3.49640E+03-1.22895E+01-6.65878E+01 3.66785E+01 1.15281E+01-5.50242E+00
 -1      1244-3.22542E+03-1.25784E+01-2.48369E+02 3.52660E+01-4.22690E+01-1.02948E+02
 -1      1245-3.86459E+03-8.97975E+01-3.56637E+01 1.29179E+01 5.88433E+00 5.56083E+00
 -1      1246-3.91136E+03 7.74997E+01 4.44857E+01-1.42030E+00-7.96958E+00 2.51586E+00
 -1      1247-4.62478E+03-1.08597E+01 1.54017E+02 1.17376E+01 2.68102E+01 1.11631E+02
 -1      1248-4.63234E+03-4.67313E+01 6.87300E+01 4.05289E+01 6.84760E+01 1.19912E+02
 -1      1249-4.87365E+03 7.21813E+02-1.39764E+02-1.00001E+02-5.08819E+01 2.23174E+02
 -1      1250-5.23645E+03 1.49787E+02 5.52966E+00 1.03254E+02-4.09672E+01-1.56747E+01
 -1      1251-4.27092E+03-6.30109E+01-2.18662E+01 4.92093E+00-7.97973E+00-3.34420E+00
 -1      1252-4.41767E+03 5.21291E+01 1.14700E+02 4.39276E+01-8.39786E+00 5.49116E+01
 -1      1253-5.26854E+03 3.46943E+02 1.37440E+01-6.51404E+01 6.19228E+01 3.38601E+01
 -1      1254 4.81434E+00-1.04056E+03-7.01582E+01-4.58680E+00 2.65288E+01 3.35031E+01
 -1      1255 9.21463E+00-1.07618E+03-7.71917E+01 1.49310E+01 9.52188E+00-1.69401E+00
 -1      1256-2.24096E+01-9.69997E+02-5.04769E+01 5.18227E+00 4.91427E+00 2.55203E+00
 -1      1257-1.90605E+01-8.54702E+02-2.14824E+01-5.78503E+00 5.36331E-01-7.38672E-01
 -1      1258 1.42072E+01 1.85643E+02 5.95384E+00 1.09980E+00 3.53286E+00 1.26429E+01
 -1      1259 3.08248E+01 3.42145E+02 2.15827E+01 8.37729E+00 8.27053E+00 7.19958E-01
 -1      1260 7.90427E+00 4.60784E+02 4.94686E+01 9.29042E+00 4.99459E+00-1.91731E+00
 -1      1261-1.65624E+00 4.92819E+02 2.15552E+01-3.96260E+00-4.98208E+00-1.10938E+01
 -1      1262-8.77097E+00-7.32221E+02-3.14181E+01-7.61865E-02-1.55536E+00 3.62271E+00
 -1      1263-1.23992E+01-5.00884E+02-1.47558E+01 1.76887E+01 9.45094E+00-6.18647E+00
 -1      1264 9.44337E+00-1.78031E+02-1.49346E+00 1.68500E+00 6.73343E+00 2.67086E+00
 -1      1265 5.55741E-01 3.92794E+01 1.26971E+01-2.61236E+00-1.25064E+00-6.15175E+00
 -1      1266-2.10233E+00-3.48328E+02 1.44901E+00-1.17519E+01-1.19184E+00-3.76612E+00
 -1      1267 1.28837E+03 1.22466E+01 1.13720E+02 1.54389E+01-3.32409E+01 3.62324E+01
 -1      1268 1.23881E+03 3.41479E+01 5.04448E+01 2.53726E+01 9.43229E-01-1.92885E+00
 -1      1269 9.74080E+02-4.73610E+00 1.40691E+00 1.61550E-01-9.87444E+00-1.92730E+00
 -1      1270 7.61332E+02 1.47962E+02 4.21295E+01-1.58611E+01-4.72891E+00 1.00864E+01
 -1      1271-6.53799E+02-1.61295E+02-9.50874E+01-7.02631E+00-4.82528E+00-2.65594E+01
 -1      1272-8.46184E+02-8.25243E+00-7.70825E+01-3.37877E+00 1.05754E+01-1.82340E+01
 -1      1273-1.00123E+03-9.03203E+01-9.89132E+01-3.40175E+00-2.01114E+01-2.70199E+01
 -1      1274 4.31781E+02-1.35791E+02-6.95183E+01-1.88210E+01-1.69151E+01 5.34502E+00
 -1      1275 3.74226E+02 2.54487E+02 8.47741E+01-3.48343E+00 1.07613E+01 4.73414E-01
 -1      1276-2.78013E+02 9.13269E+01 1.63269E+01-1.76260E+01 9.95611E+00 1.63248E+00
 -1      1277-2.11388E+02-2.09905E+02-9.50562E+01-1.64546E+01-1.02628E+01-6.34707E-01
 -1      1278 4.59026E+01 9.81969E+01 2.76380E+01-6.44087E+00 8.15104E+00 1.39084E+01
 -1      1279 1.20247E+02-1.46610E+02-7.82006E+01 1.70053E+00-1.13796E+01 2.80655E+00
 -1      1280 1.84559E+02 1.75843E+02 5.72712E+01-1.24754E+01 8.93424E+00 7.86231E+00
 -1      1281 1.92505E+01-1.20915E+02-6.96114E+01-5.54843E+00-6.53568E+00 7.10437E+00
 -1      1282 6.28386E+01 3.28483E+02 2.29775E+02-3.24495E+01 1.29196E+01-3.75773E+01
 -1      1283 7.56343E+01 1.95004E+02-1.39367E+01-2.23143E+01-1.83960E+01-4.59191E+00
 -1      1284-1.76618E+01 1.27986E+02-7.58391E+01 8.69045E+00 9.37538E+00-3.95032E+00
 -1      1285 3.57362E+01 4.52225E+01 1.52513E+01-9.00505E+00 1.35657E+00-5.23937E+00
 -1      1286-1.01599E+01 1.72853E+01-8.43231E+00-4.48502E+00-3.13342E+00-7.29168E-01
 -1      1287 3.73220E+00 3.11338E+01 2.99017E+01 1.48432E+00 9.14989E-01 5.39269E+00
 -1      1288-2.57848E+01 1.77432E+02-8.47819E+01 6.66634E+00-1.86296E+01-3.49965E+01
 -1      1289-1.63961E+01 4.66075E+00-4.38101E+00 3.38589E+00 3.52188E+00 1.48895E+00
 -1      1290 4.22873E+00 7.59642E+01 7.32105E-02-3.37797E+00-9.69688E+00 1.76067E+01
 -1      1291-8.06944E-02 4.65068E+00-2.67172E-01-1.30681E-01 1.61329E-01-1.37678E-01
 -1      1292 7.48916E-01 1.58586E+01 2.07753E+00-1.59509E-01 1.92722E+00 7.02195E-01
 -1      1293 2.79003E+00 1.92956E+00-1.14311E+00-8.87445E-01-9.54868E-01-5.77790E-01
 -1      1294 4.19496E-02 4.23240E+00 2.73230E-01 2.11867E-01 8.17879E-02 7.95691E-01
 -1      1295-9.65311E+02 9.54980E+01-4.18085E+01 4.92829E+01 2.61649E+00 1.67265E+01
 -1      1296 2.78314E+02 1.46911E+01-1.19277E+02-3.53598E+01 1.56702E+01 7.38849E-01
 -1      1297-1.35258E+03-4.15725E+00-1.67015E+01 6.61811E+00-1.27133E+00-5.08410E+00
 -1      1298-1.37699E+03-7.12312E+01-6.30011E+01-3.87402E+00-3.79301E+00-3.97643E+00
 -1      1299-1.08575E+03 2.58346E+01-1.19593E+01-4.75008E-02-2.39583E+01 1.29086E+00
 -1      1300 3.33084E+02 8.33786E+01 8.97481E+00-8.06272E+00 4.30399E+01 2.84211E+00
 -1      1301 5.28140E+02 1.15276E+01-2.23221E+01-8.30360E+01-3.21480E+01 8.41760E+00
 -1      1302 8.18605E+02 1.00353E+02 3.32933E+01 8.89589E+00 1.93024E+01-6.57100E+00
 -1      1303 9.62511E+02-1.40753E+01 3.34753E+01 1.94264E+01-1.36960E+01 1.13902E+01
 -1      1304 8.44969E+02-3.36407E+01 5.54361E+01 1.11316E+01-9.44467E+00-1.23107E+01
 -1      1305 9.93805E+01 5.15781E+01-1.07311E+01-6.47102E+01-4.72954E+01-1.74719E+00
 -1      1306-8.80560E+02-1.56007E+02-8.01138E+01-5.31371E+01 1.00990E+01-4.73239E+00
 -1      1307-5.40744E+02 1.33267E+01-6.50400E+00-1.78751E+01-2.63710E+01-7.27660E+00
 -1      1308-4.47207E+01 2.68801E+01-1.62802E+01-1.21178E+01 3.60621E+01-6.02029E+00
 -1      1309-1.26038E+02 4.69750E+01-3.47829E+00-3.13613E+01-3.09002E+01-4.61270E+00
 -1      1310-4.23539E+02-1.23518E+02-5.24162E+01-2.67954E+01 2.30493E+01 6.76146E+00
 -1      1311-2.42168E+02 1.21791E+01-3.31376E+00-1.76560E+01-2.89719E+01-4.23658E+00
 -1      1312-2.14561E+02-4.70655E+01-3.52778E+01-1.37628E+01 2.28064E+01-4.42749E+00
 -1      1313-7.01188E+01-1.69059E+02-3.94384E+01-2.32824E+02-3.95670E+01 7.56660E+01
 -1      1314-1.74459E+01 1.26550E+02-1.82089E+01-2.53347E+02-1.24270E+01-2.28749E+01
 -1      1315-3.03001E+01 7.75233E+01 1.22360E+01-7.86238E+01 3.19667E+01-1.29169E+01
 -1      1316 6.36974E+01-1.68183E+01-2.99569E+00-7.85996E+01-1.22030E+01-1.08263E+01
 -1      1317 7.69742E+00-1.51903E+01-1.92385E+00-4.94186E+01 1.55414E+01-1.79381E+00
 -1      1318 7.12118E+01-1.98477E+01-7.80180E+00-7.33908E+01-9.59615E+00 4.83012E+00
 -1      1319 3.37415E+00-5.66421E-02 1.25595E+00-5.81618E+01 1.08737E+01 8.83855E+00
 -1      1320 6.96150E+01-1.25119E+01-5.28286E+00-7.58961E+01-6.56869E+00-3.85224E-01
 -1      1321 7.73535E+00-7.50591E+00-1.35424E+01-6.34476E+01 9.50020E+00 7.25753E+00
 -1      1322 2.97574E+01 8.81857E+00 7.35468E+00-7.82647E+01-2.93851E+00 4.10292E+00
 -1      1323 2.07883E+01 8.18609E+01 3.38596E+01-5.04623E+01-7.02035E+00 6.64722E+00
 -1      1324-2.43500E+03-1.19716E+02-1.50786E+01-5.12729E+01 2.98664E+00 3.12406E+01
 -1      1325-2.52179E+03-3.96713E+01-1.56503E+01-7.76932E+01 1.03424E+00 1.94911E+00
 -1      1326-2.47607E+03 1.33121E+00-1.53999E+00-6.06880E+01-3.74944E+00 1.34528E+01
 -1      1327-2.56435E+03-1.43708E+01-9.79369E+00-6.55015E+01 2.34077E+01-1.95622E+01
 -1      1328-2.46365E+03-6.20615E+00 2.14412E+00-7.13093E+01 1.94436E+01 1.89597E+01
 -1      1329-2.56667E+03 2.11425E+01-3.73068E+00-4.79161E+01 1.14274E+01-1.66143E+01
 -1      1330-2.47890E+03-1.58195E+01-5.94033E+00-3.83543E+01 1.27884E+01 1.71491E+01
 -1      1331-2.54760E+03 1.14493E+01 8.17808E+00-5.00140E+01-1.24045E+01-1.21306E+01
 -1      1332-2.48586E+03-2.43790E+01-2.13047E+01-5.73988E+01 2.20643E+01 6.73673E+00
 -1      1333-2.58318E+03-6.16471E-01 6.86472E+00-7.10469E+01 2.74229E+01 7.97414E+00
 -1      1334-2.43605E+03-5.79688E+01 2.38250E+01-1.07595E+02 3.23205E+01 3.76250E+01
 -1      1335-2.41947E+03-3.41180E+01 4.21058E+01-2.10326E+02 1.71789E+01-3.59984E+00
 -1      1336-2.29132E+03-2.17480E+02-3.91748E+01-2.67015E+02-4.02904E+01-1.95637E+02
 -1      1337 1.67140E+01 1.55700E+01-3.00792E+01-3.96121E+02 5.29572E+01 2.80797E+01
 -1      1338-3.21629E+02 2.33755E+02-2.07966E+01-2.57259E+02 2.42064E+01 2.68852E+01
 -1      1339-2.30633E+01 1.14416E+01 3.28803E+01-3.54337E+01-1.95322E+01-2.06698E+01
 -1      1340 1.03480E+02-6.33756E+01 1.93436E+00 9.50127E+01 8.51433E+00 8.12230E+00
 -1      1341-7.94467E+01 8.10973E+00-1.97640E+01 5.79903E+01-4.74068E+00 6.29842E+00
 -1      1342 2.09479E+01-9.54434E+01 1.21244E+01 5.67756E+01-2.19405E+00 1.16070E+01
 -1      1343-4.39201E+01-8.55701E-01-2.78689E+00 8.81812E+01 2.24066E+00 2.72420E+00
 -1      1344 4.51263E+01-5.52482E+01 5.05505E+00 1.02055E+01-1.03363E+01 1.91210E+01
 -1      1345-2.01612E+03-1.30519E+02 1.01781E+02 8.70339E+01-4.95291E+01-1.19480E+02
 -1      1346-6.25437E+02-8.50500E+01 7.28769E+00 3.91449E+01 5.48611E+00 1.10471E+02
 -1      1347 1.57014E+01-3.99784E+01-3.42934E+01 5.37685E+01 8.75788E+00-3.76646E+01
 -1      1348 2.81933E+00 2.10050E+01 3.91480E+00 3.27616E+00 3.57390E+00-2.29248E+00
 -1      1349-1.01492E+01 3.93490E+01 8.33220E+00 2.18511E+01 2.64794E+00 1.28788E+00
 -1      1350 3.90353E+01 7.09380E+01-6.87537E-01 8.91872E+01 1.38490E+01 1.00206E+01
 -1      1351 2.45430E+02 1.28724E+01-5.03848E+01 8.61269E+01-3.95959E+01-5.53285E+01
 -1      1352 5.78065E+02 2.53370E+01 1.10269E+00 3.63568E+01-2.06830E+01 2.79999E+01
 -1      1353-2.95410E+01-8.49233E+01-5.38206E+00-1.38007E+02 1.15642E+01 3.87770E+01
 -1      1354-2.01682E+02 2.06733E+02 4.35278E+01-1.03134E+02-1.67758E+01 2.24454E+01
 -1      1355-8.04190E+01 6.07256E+01-1.78669E+01-9.33773E+00 5.67487E+01 1.37888E+01
 -1      1356 8.22599E+01-7.76886E+01-6.21597E+00 1.25030E+02-6.03959E+00 1.08292E+00
 -1      1357-1.15593E+02 3.69714E+01-1.63696E+01 1.14357E+02-5.36334E+01-2.55323E+01
 -1      1358 1.60763E+01 4.34321E+01 8.88953E-01 1.76476E+02-2.21002E+01-1.49238E+01
 -1      1359 1.79381E+02-2.55055E+02 6.31825E+00-3.05253E+02 2.02957E+01 2.07228E+01
 -1      1360 5.54101E+00 4.17257E+00 6.43363E-01 4.60854E+00 2.01562E-01 4.62018E-01
 -1      1361 5.24319E+01-3.06169E+01-1.14900E+01-6.42767E+01-5.38367E+00-4.42868E+00
 -1      1362 4.21027E+00-9.26072E+00 2.02620E-01-4.51670E+01 1.54105E+01 4.88649E+00
 -1      1363 1.12728E+03 2.29688E+02 4.15504E+01-1.50014E+03-5.29588E+01 4.51251E+02
 -1      1364-2.56246E+02-1.11438E+02-4.23119E+02-2.69517E+02-2.58755E+01-3.18460E+01
 -1      1365-2.94539E+03-1.17619E+02 1.36062E+02-3.72525E+02 3.19604E+01-1.03538E+02
 -1      1366-3.32012E+03 4.05665E+02 1.98268E+02-8.56342E+02 3.18754E+01 9.92158E+01
 -1      1367 4.47170E+01-3.49986E+01-2.80631E+01-1.20102E+01 1.33717E+01-1.66438E+01
 -1      1368-1.29909E+02 4.38660E+01-1.09906E+01 1.33451E+02-1.02822E+01-1.81522E+01
 -1      1369 5.13944E+01 4.24342E+01 3.64406E+00 1.36833E+02 2.05428E+01-9.70745E+00
 -1      1370-4.22096E+01-2.28067E+02-1.56279E+01 1.69612E+01 4.93871E+01 8.89456E+00
 -1      1371 2.78706E+01 1.36447E+01-8.45390E+00 7.18905E+01-1.11940E+01 3.33209E+00
 -1      1372-4.88600E+01 3.11714E+01-1.26223E+01 8.72377E+01-1.10887E+01 1.29085E+01
 -1      1373 6.89608E+01-8.98286E+01 1.61883E+01 4.43612E+01-9.50134E+00 6.63979E+00
 -1      1374-1.87874E+01 2.63040E+00-1.50466E+01-1.55277E+01-1.82696E+00 9.45657E-01
 -1      1375 3.37272E+01-3.82030E+01 1.81418E+01 1.03261E+02 6.55205E+00 6.23270E+00
 -1      1376-9.57799E+01 4.60049E+01 1.53113E+00 8.29600E+01-1.36102E+01-4.72088E+01
 -1      1377 1.94189E+02-1.23708E+02-1.21125E+01-1.27453E+02 2.03172E+01-2.72004E+01
 -1      1378 3.27873E+01-6.63691E+00-1.03491E+01-6.34343E+01 4.98216E+00-1.73622E+01
 -1      1379-1.05549E+03 1.12681E+02-2.82035E+01 5.12068E+00 4.11160E+01 7.19039E+01
 -1      1380-9.04206E+02 1.71379E+02 5.85798E+01 1.52410E+02-1.53543E+01-8.51633E+01
 -1      1381-1.35508E+03-4.19990E+01 4.44475E+01 2.14842E+02 2.54410E+01-1.01009E+01
 -1      1382-1.34621E+03-2.00967E+02 4.69673E+01 6.77667E+01-4.64933E+01 1.02875E+02
 -1      1383 1.32281E+00 3.11946E+00 8.21353E-01 1.55950E+00 6.67771E-01 1.21706E-02
 -1      1384-6.24948E+00 4.53871E-01 3.81674E+00-8.44485E-01 2.66021E+00 2.71661E+00
 -1      1385-1.00707E+02 2.94011E+01-1.59605E+01 5.01501E+01-4.69679E+01-5.44441E+00
 -1      1386-1.65148E+01-4.86426E+01-1.68111E+01 3.35424E+01 3.18097E+01 2.80813E+01
 -1      1387 1.11313E+03 2.86823E+02 2.00988E+02-2.73506E+02-5.39576E+01 2.52491E+01
 -1      1388 9.96719E+02 7.57059E+01 4.72924E+00-1.69382E+02-5.26834E+00 1.08009E+00
 -1      1389 1.04040E+01 2.75930E+00-1.04214E+01 5.15662E+01-6.65177E+00-1.58093E+01
 -1      1390 6.58617E+01-7.69436E+01 1.95469E+01 2.72022E+01-6.85707E-01-8.94157E+00
 -1      1391 1.01433E+02-9.16910E+01 8.33562E+00 5.43817E+01 4.38266E-01 1.22659E+00
 -1      1392-1.88927E+02 3.52845E+02 8.79804E+01-2.70094E+02 9.00498E+01 2.25596E+02
 -1      1393 3.49552E-01 2.03997E+00-2.27510E-01-3.17024E-01 4.37514E-02-1.95537E-01
 -1      1394-6.14555E+01-2.91123E+00-1.37863E+01 3.71713E+01-6.63054E+00 1.04164E+01
 -1      1395-4.79555E+01 2.94869E+01 9.34045E+00 5.92430E+00-6.13056E+00-2.04792E+01
 -1      1396-3.57796E+03-1.50318E+02-1.05162E+02-2.44688E+02 8.50493E+00 1.66915E+00
 -1      1397-2.50971E+03-2.18659E+02 9.99805E+00-1.93021E+02 4.98879E+00-7.10802E+01
 -1      1398-2.55019E+03 7.29381E+02 6.88743E+01-1.62820E+03-6.30986E+01 5.72582E+02
 -1      1399-1.64263E+03-6.56402E+02 2.07941E+02-2.36450E+03 2.23662E+02 1.40305E+03
 -1      1400-3.65415E+03-7.19633E+01 1.44199E+02-1.60696E+02-8.87311E+00 2.50640E+01
 -1      1401-1.88130E+03-5.51598E+02-2.47432E+02-2.67122E+02 9.89204E+01-6.31966E+01
 -1      1402-7.69690E+02 4.56923E+02 3.15943E+01-1.15748E+02-6.24363E+01-5.60071E+02
 -1      1403-2.23160E+01-1.27053E+01-1.14218E+01-2.62711E+00 1.37972E+01 2.27920E+00
 -1      1404-5.03594E+01 4.85521E+01 7.55333E-01 2.37850E+00-1.69255E+01 1.49826E+01
 -1      1405-1.18604E+03 6.90249E+01-1.01903E+02 1.53918E+02 1.46100E+00-9.57694E+01
 -1      1406-1.13751E+03 1.47929E+02-2.18027E+01 3.00238E+02 4.07125E+00 8.13177E+01
 -1      1407-1.72992E+03-1.67131E+02-1.55487E+01-1.75775E+01-1.20889E+01 9.81647E+00
 -1      1408-1.03297E+02 1.34380E+02-9.99217E+00-2.45011E+02-1.31692E+01 1.45786E+01
 -1      1409 7.00975E+01-2.74978E+01 1.77759E+01-2.50398E+02-2.76212E+01 2.71187E+01
 -1      1410-1.77975E+01-3.90105E+01 1.86963E+00-5.70956E+01-6.43306E+00 1.05867E+01
 -1      1411 8.94010E+01 5.42046E+00-3.16207E+00-9.31977E+01 8.24634E+00-9.27396E-01
 -1      1412-1.82083E+01-7.83276E+00 8.95283E-01-6.79373E+01 1.66323E+01-8.63382E+00
 -1      1413 7.25652E+01-4.80673E+01 5.86504E+00-5.18179E+01-6.12599E-01 1.28915E+01
 -1      1414-5.26864E+00-6.45810E+00 6.63079E-01-6.61600E+01 9.79943E+00-4.82946E+00
 -1      1415 7.27093E+01-1.56655E+01 8.05975E+00-6.60020E+01 4.53230E+00 9.40435E+00
 -1      1416-2.12774E+00 1.80576E+01 1.63194E+01-4.01013E+01-1.78625E-01-1.21145E+01
 -1      1417 6.04176E+01-6.19414E+00 1.23220E+01-6.21957E+01 3.09757E+00 2.38548E+00
 -1      1418-2.54748E+03-1.44185E+01-2.94484E-01-7.53883E+01-1.21231E+01 5.76981E+00
 -1      1419-2.49618E+03-1.17316E+01-1.21629E+01-5.54698E+01-1.24656E+01-9.01880E+00
 -1      1420-2.56265E+03 4.09919E+00-4.35572E+00-4.50823E+01-7.75329E+00 1.14191E+01
 -1      1421-2.48216E+03-2.45670E+01-7.62785E+00-4.85004E+01 3.32217E+00-3.03209E+00
 -1      1422-2.55855E+03 5.83969E+01 1.64136E+01-5.22069E+01 1.54375E+01-1.29458E+01
 -1      1423-2.48502E+03-3.12172E+01-1.79746E+00-5.23629E+01 3.71642E+00-1.52048E+00
 -1      1424-2.61940E+03-3.99704E+01-3.22843E+01-1.35139E+02-2.82536E+01-5.25309E+01
 -1      1425-2.44101E+03 1.76537E+01 3.11810E+01-4.71151E+01 1.70687E+01-2.74367E+01
 -1      1426-2.40680E+03-1.66034E+02-1.00979E+01-2.60286E+02-3.95847E+01 9.23630E+01
 -1      1427-2.40993E+03 2.99472E+01 2.53281E+01-2.67540E+02 1.75998E+01 7.93186E+01
 -1      1428-3.33264E+02 1.51825E+02 3.96677E+00-2.52615E+02-8.95871E+01 1.30921E+01
 -1      1429-5.81555E+01 1.82924E+01 2.72297E+01-3.45544E+02-5.02037E+01-4.09666E+01
 -1      1430 6.43433E+01-7.30141E+01-4.50732E+00 1.26654E+02 6.98788E+00 1.80462E-01
 -1      1431-3.08573E+01 1.61126E+00 1.33014E+01-3.68744E+01-1.31230E+01 7.63633E+01
 -1      1432 1.69652E+01-8.61862E+01-1.22419E+01 6.40789E+01 5.84613E-01-5.08715E+00
 -1      1433 6.01858E+01 1.10197E+01-3.29966E-01 6.98262E+01-8.64083E+00 2.24375E+00
 -1      1434-1.46961E+01-8.02277E+01-7.54987E+00 6.60693E+01-7.88196E+00 2.42365E+00
 -1      1435 1.40762E+01-4.30792E+01 9.54033E+00 7.84401E+01-7.07243E+00 3.42556E+00
 -1      1436 2.83634E+01-3.59238E+01 7.59441E+00 3.99958E+00 6.70885E+00-3.47462E+01
 -1      1437-3.52310E+01-9.26727E+00-8.77159E-01 1.01889E+02-1.81486E+00 1.83167E+00
 -1      1438 2.35827E+02-1.50271E+02-7.00757E+00-1.83243E+02-5.88210E+00 2.48422E+01
 -1      1439-2.03258E+03-1.99400E+02-7.64600E+01 2.38377E+02-7.22655E+01 1.35925E+02
 -1      1440-2.72059E+00 1.29086E+01-2.17942E+01-2.13974E+01 3.18038E+00 4.19241E+00
 -1      1441 8.77346E+01 4.46075E+00 2.21589E+00-3.61702E+01-7.33902E+00 3.11672E+00
 -1      1442-2.72287E+01 2.45096E+01-3.33102E+00 1.80560E+01 3.97741E+00-1.71174E+00
 -1      1443-2.06067E-01 1.63818E+01-2.45114E+00 6.86600E+00 3.72397E+00 4.42543E+00
 -1      1444 2.27738E+02 1.68318E+01-5.54342E+01 8.97830E+01 3.60853E+01 6.80340E+01
 -1      1445 3.34490E+01 8.97174E+01-4.01731E+00 9.28924E+01-1.72314E+01-2.92419E+00
 -1      1446-4.47694E+01-1.31424E+02-1.59138E+01-1.61888E+02-4.26225E+00-8.49137E+00
 -1      1447 6.19781E+02 4.85968E+01 2.72663E+01 4.84463E+01-1.38583E+01-4.76627E+01
 -1      1448-1.90170E+02 1.88662E+02 9.73133E+00-1.21442E+02 1.10894E+01-2.44367E+01
 -1      1449 5.56392E+01-2.80562E+01 5.10882E+00 8.81490E+01-7.72555E+01 4.01750E+01
 -1      1450-1.50878E+02 1.66197E+01-1.88100E+01 1.35107E+02-2.13410E+01-3.36829E+01
 -1      1451 3.71339E+01 1.28556E+01 3.04808E+01 1.96640E+01 7.36972E+01-4.69761E+01
 -1      1452-1.19581E+02 7.56607E+01-2.58608E+01 1.82234E+02 2.39665E+01 9.27403E+01
 -1      1453 7.10491E+01-3.13065E+02 2.79019E+00-1.60168E+02-4.66274E+01-3.44941E+01
 -1      1454 6.88269E+00 4.67604E+00 2.98819E-01 5.59053E+00 1.04128E+00 4.87261E-01
 -1      1455-2.76224E+00 4.84614E+00 8.98008E+00-2.89447E+00-4.78252E+00 4.83257E-01
 -1      1456 4.06808E+01-6.82072E+01-3.90215E+01 3.08456E+01-2.61333E+01 2.25155E+01
 -1      1457-5.67975E+02-1.68510E+02 2.56198E+01 9.67582E+01 4.69770E+01-8.81258E+01
 -1      1458-1.05065E+02 9.40637E+01-1.75502E+01 8.61289E+01 8.43911E+00-1.29538E+01
 -1      1459 3.52423E+01-7.18347E+01-3.25383E+00 1.40631E+02-4.31610E+01 1.61199E+01
 -1      1460-8.71489E+01 9.49272E+01-8.94584E+00 2.95971E+01-4.34849E+01 5.34759E+00
 -1      1461-2.55643E+03 2.24496E+01 7.94486E+00-6.72260E+01-7.35378E+00 9.13571E+00
 -1      1462-2.47490E+03-2.61697E+01 1.30248E+00-7.04853E+01-7.71471E+00-9.36780E+00
 -1      1463-3.55076E+03-7.19526E+01-1.50525E+01-1.28885E+02-1.67090E+01-8.05284E+00
 -1      1464-3.48797E+03-6.23307E+01-1.58017E+00-7.83184E+01 6.45007E+00-2.04254E+01
 -1      1465-3.17734E+03-1.25306E+02-1.13640E+01-2.49922E+02-2.55363E+01 5.73696E+01
 -1      1466-3.26967E+03-5.05920E+01 9.07142E+01-1.59088E+02-1.16967E+01-6.17125E+01
 -1      1467-2.46002E+03-1.16398E+02 4.99465E+01-7.26718E+01-3.26103E+01-1.11824E+02
 -1      1468-2.98680E+03 2.00091E+02 6.86814E+01-5.57267E+02 8.49444E+01 6.02431E+01
 -1      1469-2.70518E+03-1.92464E+00 1.90223E+02-3.83161E+02-3.22597E+02 5.93798E+01
 -1      1470-2.08483E+03-1.50437E+02 2.60827E+02-8.57884E+01-1.23296E+02-2.64505E+02
 -1      1471 6.12932E+02 1.43127E+02-3.29179E+02-2.69914E+02 4.68014E+02 8.61989E+02
 -1      1472 5.92606E+02-1.31470E+02 2.16961E+01-1.31129E+03-2.94054E+02-7.70563E+02
 -1      1473 1.24132E+03 1.11943E+02-2.91169E+01-1.59778E+02-1.30574E+01 5.38096E+01
 -1      1474 1.12164E+03 1.76910E+02 4.57805E+01-1.97341E+02-5.52614E+00 3.41349E+01
 -1      1475 1.75294E+02 2.66161E+02-1.48889E+00-1.48599E+02 5.58487E+01-1.13744E+02
 -1      1476 4.28157E+00 9.36296E+01 2.37971E+01-6.89841E+01 8.17932E-01 3.31377E+01
 -1      1477-1.71527E+01 4.08276E-01 6.58258E-01-4.88765E+01 1.21243E+01-7.83705E+00
 -1      1478 6.28154E+01-6.34795E+01-1.12838E+00-4.26430E+01 3.43269E-01 3.34153E+00
 -1      1479-2.54811E+03-7.11542E+01-2.68719E+01-6.53647E+01 1.55267E+01 1.24473E+01
 -1      1480-1.53663E+03-1.39256E+02-2.76797E+01-8.23435E+00 1.17012E+01-3.53106E+01
 -1      1481-1.56730E+03-1.33959E+02 1.56549E+01 7.12804E+01-8.72397E+01-7.61938E+01
 -1      1482 1.18497E+01-8.21435E+01 5.15976E+00 1.12671E+02-1.63825E+00 3.74797E+00
 -1      1483-1.15319E+01-1.32165E+00-3.13949E+01 5.97638E+01 1.15432E+01 9.94357E+00
 -1      1484 1.94299E+00 3.86132E+00 1.03531E+00 1.52393E+00-5.07029E-01 4.33868E-01
 -1      1485 7.57579E+01 1.86090E+00 9.87567E+00 8.60953E+01-4.34664E+01-3.21392E+00
 -1      1486-9.39775E+01-4.02323E+00-2.51585E+01 1.30993E+02 3.67219E+01 8.82468E+01
 -1      1487-1.19625E+03-6.61823E+01 1.69251E+02 1.80650E+02 7.57290E+01-8.71296E+01
 -1      1488-1.51688E+03-9.47984E+01-1.20436E+02 2.40874E+02-2.19782E+01-1.59833E+01
 -1      1489-8.09721E+02 1.58912E+02 6.17936E+01 2.10157E+02-6.65873E+01-1.15223E+02
 -1      1490-8.95572E+02 2.10351E+02-3.05732E+01 3.42235E+01-1.60537E+01-5.67958E+01
 -1      1491-4.66283E+01 6.25960E+00-7.05322E+00 5.80834E+01 2.01476E+01-1.85146E+01
 -1      1492 1.46421E+01-2.01052E+01 3.97348E+00 4.48698E+01-1.04567E+02 4.54982E+01
 -1      1493-6.66918E+01 2.81079E+01-2.18009E+01 3.96771E+01 3.46410E+01 4.43956E+01
 -1      1494 3.55045E+01-8.57715E+01-1.91915E+01 9.95479E+01 1.28853E+00-6.16308E+00
 -1      1495-1.49062E+03-9.48429E+01-6.96701E+00 3.84832E+01 1.16785E+02 7.22353E+01
 -1      1496-1.90572E+03-1.23676E+03-1.75270E+02-2.48600E+03-7.41496E+00-4.08839E+02
 -1      1497-1.32061E+03 1.18166E+03 6.13149E+02-1.45291E+03-1.13236E+02-3.54855E+02
 -1      1498-1.60886E+03-3.98613E+01 4.41237E+01-4.34756E+01-3.01518E+01-8.93351E+01
 -1      1499-7.43607E+02 7.99726E+01-7.54265E+01-5.09280E+01 3.62015E+01-9.79360E+01
 -1      1500 1.52951E-01 1.82243E+00-2.21485E+00-1.20917E+00 3.60131E-01-7.92194E-02
 -1      1501-1.82486E+01 9.21568E+00-6.76308E+00 7.39658E+00-6.04197E+01 2.92681E+01
 -1      1502-3.72930E+00-1.83133E+01-5.84417E+00 5.48857E+00-4.33473E+01 1.29508E+01
 -1      1503-5.95886E+01 4.47465E+01-6.47663E+00 1.78144E+01 2.65513E+01-2.46358E+00
 -1      1504-6.06066E+02 5.25425E+02 1.33436E+02-2.07804E+02 2.21908E+02 4.67740E+02
 -1      1505-1.97838E+03-9.45988E+02-2.84406E+02-1.30157E+02-1.49583E+02-7.32604E+01
 -1      1506-5.12463E+01 9.62604E+01-3.30957E+01 8.02355E+01 1.82630E+00-4.08503E+00
 -1      1507 3.53175E+01-2.34310E+02 1.76638E+01 9.03288E+01 3.43780E+01 1.94287E+00
 -1      1508-2.38624E+01-9.26221E+01-9.47751E+00 2.97540E+01 3.22178E+00 5.56561E-01
 -1      1509 3.10909E+01 1.33124E+02 1.36141E+01 5.01071E+01-3.46485E+01 3.23512E+00
 -1      1510-1.62765E+01-1.51786E+02-6.08297E+00 2.26126E+01-7.06271E-01 2.58519E+00
 -1      1511-5.34791E+01 2.14981E+02 1.38907E+00 9.74209E+00-8.60180E+00-5.30180E+00
 -1      1512-2.71570E+01 2.83555E+01 1.42377E+01 3.32268E+01 1.87070E+00 9.18320E-01
 -1      1513-3.55398E+02-1.52314E+02-1.52314E+02-3.89790E+01 7.38580E-06 2.46570E+01
 -1      1514-2.24962E+01-9.23457E+00-9.44323E+00-2.79120E+01 1.68016E-01-1.34039E+01
 -1      1515-4.43866E+01-2.12846E+01-1.93182E+01 1.00330E+02-9.79248E-01 3.06771E+01
 -1      1516-1.07802E+02-4.59029E+01-4.61353E+01 3.24415E+01 1.44368E-01 1.91962E+01
 -1      1517 1.45907E+02 6.58660E+01 6.31581E+01-2.66830E+01 2.32290E+00-7.35781E+00
 -1      1518 2.81236E+00 2.62112E+00 9.15856E-01 9.98508E+00 5.65750E-01 2.84015E+00
 -1      1519 1.07331E+02 5.08514E+01 4.74547E+01 5.91273E+00 5.59166E-01 1.08040E+01
 -1      1520-3.25767E+00-8.23973E-01-1.19984E+00 1.95203E+01-1.22831E-01-7.69312E+00
 -1      1521-5.02691E+00-2.15440E+00-2.15441E+00 2.58509E+00-1.66812E-06-2.51701E+00
 -1      1522 4.17907E+00 1.25935E+00 2.42864E+00 4.78281E+00-3.07628E-01 4.32159E+00
 -1      1523-1.47196E+01-6.05551E+00-6.30989E+00-1.50870E+00-1.33597E-01 5.46121E+00
 -1      1524 2.55956E+00 6.98813E-01 9.96800E-01-5.98919E-01 2.42457E-02-4.23807E-01
 -1      1525-6.88301E-01-3.80586E-01-3.81173E-01 8.42510E-01-6.59866E-02 3.32045E-02
 -1      1526 1.34965E-01 1.25778E-02 4.46325E-02 2.56228E-01 4.81211E-03-2.83783E-02
 -1      1527-2.42378E-01-2.61453E-01-3.17698E-01 2.54272E-01-1.32647E-01 1.08159E+00
 -1      1528-5.00124E+01 2.67539E+02-1.34763E+02 4.77181E+01-6.26267E+00-4.36695E+00
 -1      1529 5.27559E+00-2.06702E+02 3.05412E+01 2.05205E+01 1.43730E+01 1.35984E+01
 -1      1530 2.62212E+01-5.33452E+02-7.48913E+00-9.40020E+00-1.06053E+01 2.90545E+00
 -1      1531-6.23917E+01 8.40137E+02-5.37740E+00-1.57989E+01-1.81068E+01 2.00477E+01
 -1      1532 2.93500E+01 1.03252E+03 1.78114E+01-3.21102E+00-3.25633E+01 1.37711E+00
 -1      1533 4.61268E+00 9.60813E+02-3.94793E+01 1.49096E+01-7.71086E+00-1.72879E+01
 -1      1534-2.14133E+01 8.20818E+02-4.27710E+01-9.43423E+00 8.68661E+00 7.96421E+00
 -1      1535-6.68994E+00 6.74195E+02-1.64968E+01-1.59871E+01-6.36102E+00-7.00294E+00
 -1      1536 2.42468E+01 5.45642E+02-3.68593E+00-6.29104E+00-1.16051E+01 4.45743E+00
 -1      1537 2.51359E+01-2.67450E+01-5.69563E+00 3.48639E+00-1.57697E+01-1.00400E+01
 -1      1538-1.40157E+01-1.92568E+02-1.32931E+00-1.19724E+01 6.24780E+00 6.39441E+00
 -1      1539-3.53742E+01-3.71161E+02-1.20654E+01-1.89189E+00-9.97641E+00-7.97724E+00
 -1      1540-1.29731E+01-4.85556E+02 3.56274E+00-1.70788E+00 1.00502E+01 1.30067E+01
 -1      1541-1.48602E+01-5.99305E+02-1.23628E+01-7.63543E+00-1.89023E+01-1.49411E+01
 -1      1542 8.98496E+00 3.30231E+02 7.91538E+00-1.25041E+01-1.00628E+01-1.46394E+01
 -1      1543-2.05971E+01 1.71148E+02-4.60683E+00-1.13613E+01 3.92711E+00 2.40234E+01
 -1      1544-1.55651E+02 7.50316E+01 1.27747E+02 1.48260E+01 1.05125E+01-1.32378E+01
 -1      1545-2.32396E+03 2.21460E+01-1.14263E+02-4.19522E+01-1.03038E+02 6.30496E+01
 -1      1546-5.64580E+02 2.14200E+01 9.18824E+00-1.65979E+00-2.11766E+00 5.78955E+00
 -1      1547-8.11732E+02 1.29945E+01 4.52449E+00-4.20388E+00 5.16451E+00-1.02460E+01
 -1      1548-9.78404E+02-6.02796E+00 9.67195E+00 5.72634E+00-1.33870E-01 1.35310E+00
 -1      1549-1.28704E+03 3.85802E+01 3.80806E+01 1.90765E+01 4.49336E+00-5.29813E+00
 -1      1550-1.45794E+03-7.05455E+01-1.26707E+01-5.80107E-01-6.06578E+00 3.43253E+00
 -1      1551-1.53763E+03 3.37661E+01 2.52361E+01 1.62127E+01 2.54636E+00-1.57520E+00
 -1      1552-1.67401E+03-4.24714E+01-1.09194E+01 9.02474E-01-3.98205E+00 4.42895E+00
 -1      1553-1.73445E+03 2.03359E+01 7.73817E+00 1.01306E+01 3.50771E+00 4.21122E-01
 -1      1554-1.81502E+03-3.32100E+01-2.57357E+01-1.61662E+00-4.62843E+00 1.12970E+01
 -1      1555-1.82391E+03 1.22127E+01-3.36876E+01-1.32815E+01 2.28266E+00 1.97403E+00
 -1      1556-1.71579E+03-2.15450E+01-6.37777E+01-2.16050E+01 1.26987E+01 1.63399E+01
 -1      1557-1.46626E+03 6.63398E+01-1.82463E+01 9.17823E+00-2.02529E+01 6.90152E+00
 -1      1558-1.07240E+03-2.60517E+01 3.00751E+01-1.97462E+01 4.15109E+01 2.72585E+00
 -1      1559-7.81471E+02-8.77027E+01 4.04002E+01-2.01488E+01-6.64755E+00 9.84796E-01
 -1      1560-6.63298E+02 2.35862E+01 5.41080E+01-1.13168E+01-3.42006E+00-8.23577E+00
 -1      1561-6.89689E+02 1.35742E+01 2.90678E+01 1.39433E+00 5.25441E+00 4.19212E+00
 -1      1562-7.58890E+02 2.12277E+00 2.10925E+01 3.18350E-01-7.55550E+00-2.09373E+00
 -1      1563-8.54902E+02 4.26329E+01 2.62195E+01 3.80914E+00 6.26396E+00 1.35182E+00
 -1      1564-9.96962E+02 1.23343E+00 3.56033E+00 1.67820E+00-5.11180E+00-2.58109E+00
 -1      1565-1.10251E+03 4.93622E+01 1.95864E+01 8.24588E+00 6.93945E+00-2.12116E+00
 -1      1566-1.21511E+03 1.58472E+01 5.69455E+00 4.63035E+00-2.55288E+00-4.83180E+00
 -1      1567-1.32561E+03-3.68850E+00 2.19011E+00 6.76431E+00 1.98897E+00 2.22455E+00
 -1      1568-1.45313E+03-1.27212E+01-3.70913E+00 9.51320E+00-6.78530E-01 1.78300E+00
 -1      1569-1.53137E+03 4.01121E+01 1.03992E+01 1.80699E+01 2.29349E+01 2.16898E+01
 -1      1570-1.63032E+03 4.31374E+01 9.29385E+01 7.18963E+01-1.28486E+00 2.71197E+01
 -1      1571-2.05468E+03 1.45126E+01 1.30183E+02-1.23752E+01 2.92677E+00-3.57873E+01
 -1      1572-1.07395E+03 3.18775E+00 2.25539E+01 4.01780E+00 3.69845E+00 1.59444E+00
 -1      1573-1.21835E+03-3.30258E+01 6.89537E+00-2.31794E+00-8.64357E+00 4.12129E+00
 -1      1574-1.27452E+03-1.09987E+01-1.39374E+01-4.30103E+01-1.19030E+00-3.46984E+01
 -1      1575 2.12856E+02-3.57386E+01 2.81420E+00-5.37343E+01-4.01935E-01-8.22266E+00
 -1      1576-1.15073E+03 1.20836E+01 1.61015E+00-4.93708E+01-7.67190E+00-2.98209E+01
 -1      1577 1.51019E+03-2.03997E+01-5.43735E+00 6.38762E-01-3.76695E+00-4.92398E+00
 -1      1578 1.43769E+03-1.07376E+01 1.21639E+01-4.25390E+01 1.02950E+00-3.26825E+01
 -1      1579 1.56250E+03 1.79220E+01 1.30839E+01-5.90387E+01 1.05677E+01-3.17523E+01
 -1      1580-1.63796E+03-3.53221E+00-1.75438E+01-7.96029E-01-6.79546E+00 9.64683E+00
 -1      1581-1.65748E+03 4.86158E+01-3.89490E+01 5.84056E+00 1.59428E+01 1.01891E+00
 -1      1582-1.60735E+03-2.40904E+01-1.02201E+01-3.46032E+01 1.29507E+01 1.12746E+01
 -1      1583-1.47965E+03 7.48008E-01-1.65513E+01-4.47180E+01-5.40473E+00-3.17422E+01
 -1      1584-1.40377E+03-3.32216E+00-2.74261E-01 6.69994E+00 4.94461E+00-4.28108E+00
 -1      1585-1.37190E+03 1.42492E+01-5.53266E-01-6.42716E+01-5.93714E+00-3.30707E+01
 -1      1586-2.32980E+02-1.55409E+02-6.48864E+01 8.73979E-01 5.14171E+01 1.87339E+01
 -1      1587-1.62649E+02 1.43936E+02 5.91494E+01 2.58743E+01-5.78393E+01-8.98038E+00
 -1      1588-1.69025E+02 8.02552E+01 3.02046E+01 5.59029E-01 9.71434E+00 4.33584E+00
 -1      1589-1.51690E+03 2.58869E+01 4.23146E+00-3.25730E+00-3.22944E+00 7.12126E+00
 -1      1590-1.54784E+03 2.61915E+01-1.39236E+01-4.53271E+01 2.42164E+01 3.24403E+01
 -1      1591-1.45664E+03-2.43289E+01-1.48867E+00-6.72332E+01 3.31164E-01 3.35802E+01
 -1      1592-3.42684E+03 7.06020E+01-1.11390E+01-1.63538E+01 1.64359E+01 4.90430E+01
 -1      1593-3.40764E+03-1.51830E+02-1.70032E+02-5.18870E+01 2.55908E+01 1.07944E+02
 -1      1594-3.38009E+03-6.70418E+01-1.40690E+02 6.00500E+00-4.08221E+00-1.48582E+01
 -1      1595-3.09650E+01 1.40758E+01 6.85778E+00-1.35572E+01 6.18634E+00 3.00633E+00
 -1      1596-1.75069E+01 2.77995E+01-1.67503E+01 2.61224E+01 4.90459E+00 4.48459E+00
 -1      1597-1.68408E+00 6.29068E+01 3.85932E+01 1.65932E+01 4.50476E+00-7.96255E+00
 -1      1598-1.16111E+03 7.70933E+01 1.39254E+01 3.57924E+01 3.13523E+01-4.94133E+01
 -1      1599-9.93688E+02-5.42537E+01-3.09617E+01 1.34630E+02 2.50405E+01-6.16971E+01
 -1      1600 1.46077E+02-1.06089E+02-4.02655E+00 1.37513E+02 1.78284E+01-2.17748E+01
 -1      1601 9.26462E+00-3.78770E+02-9.52043E+00-2.46329E+02-5.61030E+01 9.36144E+01
 -1      1602-8.00234E+02-7.92723E+02-1.32835E+02-5.02508E+01 1.84702E+02 2.08092E+02
 -1      1603-9.56866E+02-2.27489E+02-5.10850E+01 9.72724E+01 7.73239E+01 7.40186E+01
 -1      1604 9.41476E+01 7.41509E+01-1.87179E+02-1.38277E+02-1.49604E+01 1.36352E+01
 -1      1605 1.77816E+02 1.51838E+02-1.08825E+02-2.84586E+02 7.82600E+01 4.35275E+01
 -1      1606-2.45094E+01 3.64210E+02-2.47055E+00-9.13524E+00 4.07075E+00-1.88454E+00
 -1      1607 2.11334E+01 4.36160E+02-2.96055E+00-2.93752E+02 2.11858E+02-2.86789E+01
 -1      1608-5.01926E+01-1.56161E+01 2.12883E+01 1.36804E+01-8.47072E+01-1.06482E+02
 -1      1609 1.14505E+02-2.24278E+02-8.48923E+01 2.49190E+01-7.66423E+01-2.34819E+01
 -1      1610 1.84861E+02 1.36944E+02 5.46625E+01 6.03597E-01 4.56125E+01 1.07917E+01
 -1      1611-2.37672E+03-4.64728E+01 1.73903E+01-5.94423E+01 1.16141E+01-6.86440E-01
 -1      1612-2.52945E+03-7.08747E+01-1.30165E+01-1.79840E+02-1.33540E+01 5.43491E+00
 -1      1613-1.75615E+03-1.57309E+01 4.64325E+01-1.13675E+02 2.24153E+01-8.81645E+01
 -1      1614-2.01059E+03 7.07345E+01 7.63359E+01-2.96975E+02 2.70825E+01-1.26064E+02
 -1      1615 4.46667E+02 2.87708E+02-1.96297E+01 2.32620E+02 1.04769E+01-2.11115E+00
 -1      1616 5.60151E+02 3.14302E+02 2.80517E+01-9.90516E+01-7.33509E+01 1.24662E+02
 -1      1617 7.90060E+02 5.87152E+01 2.20168E+01 1.39771E+01-6.93161E-01-8.09330E+01
 -1      1618 7.57456E+02 5.85856E+00-6.17308E+00-1.05735E+01-4.18344E+00 4.45195E+00
 -1      1619 1.04220E+02 8.67827E+01-9.60803E+01-2.36386E+02-5.88081E+01-4.29442E+01
 -1      1620-4.20511E+03-7.41256E+01-1.94524E+01-2.62781E+02-1.52012E+00-3.11558E+02
 -1      1621-4.91751E+03-1.39897E+02-1.00563E+02 2.46022E+01 4.12412E+01-1.22670E+02
 -1      1622-4.22384E+03 6.87751E+01 4.25466E+01-5.64658E+02 5.10092E+01-4.90197E+02
 -1      1623-6.54458E+02-2.88849E+02-2.87321E+02-1.48282E+02-1.17783E+01-1.28795E+01
 -1      1624-9.76727E+02 2.19154E+01-7.90550E+01-2.19367E+00 9.68451E+00 1.20296E+01
 -1      1625-7.03197E+02-1.65795E+02-2.09680E+02-1.55728E+02 2.80114E+01 2.19257E+01
 -1      1626 1.73128E+03 4.19029E+01-3.42863E+01-4.91971E+01 1.27751E+01-5.12588E+01
 -1      1627 1.69147E+03 7.88310E+00-1.17694E+01 6.20867E-01-7.18721E+00-4.61009E+00
 -1      1628 1.67212E+03 5.08546E+00 3.38586E+00-5.23064E+01 8.40906E+00-4.55290E+01
 -1      1629-2.70654E+03 3.03132E+01-8.42376E-01-7.28053E+01 2.32320E+00-9.98454E+00
 -1      1630-1.09695E+03-2.02229E+01-4.42313E+00-4.70977E+01 5.94008E+00-3.39114E+01
 -1      1631-1.21941E+03 4.84016E+00-5.63748E+00-5.50528E+01-2.24648E+00-2.93131E+01
 -1      1632-4.10465E+02-2.37017E+02-1.04937E+02 2.68677E+01 8.90362E+01 6.25828E+01
 -1      1633-3.77743E+02 9.80525E+01 4.73861E+01 1.70402E+01 2.12510E+01 1.66316E+01
 -1      1634-2.75825E+02-6.37470E+01-1.52359E+01-1.12187E+01-1.21617E+01-8.77891E+00
 -1      1635-2.83477E+02 1.50904E+02 6.15035E+01 4.58697E+01 3.77073E+01-3.43852E+01
 -1      1636 5.62289E+02 1.72479E+02 8.73484E+01 8.75791E+01-6.24704E+01 7.66980E+01
 -1      1637 1.54111E+01-1.56768E+01-1.35366E+01 1.12863E+02-6.10040E+01-1.31080E+02
 -1      1638-1.06798E+02 2.69774E+01 1.25298E+01 1.80391E+02 1.52065E+01 7.47329E+01
 -1      1639-6.05383E+02 1.03649E+02 1.20338E+00 7.20933E+01 5.27328E+01-3.58675E+01
 -1      1640 1.78530E+02 7.52920E+00 3.06597E+00-7.26261E+01-1.52076E+00-9.43720E-01
 -1      1641 1.72764E+03 1.14928E+00-5.47588E+01-1.48303E+02-6.09139E+00-1.47219E+02
 -1      1642 6.27809E+01-8.59316E+02 2.66072E+01 5.67788E+01 2.10395E+01 3.94559E+01
 -1      1643-2.51459E+02-1.05152E+03-3.00115E+01 6.81098E+01 4.82807E+01 5.86809E+01
 -1      1644-1.15640E+03-5.07265E+01-1.50544E+01-4.29785E+01-2.94012E+01 3.68901E+01
 -1      1645-1.23140E+03-2.81428E+00-4.95526E+00-5.12737E+00 5.25575E+00 2.20588E+00
 -1      1646-1.14367E+03-4.31764E+01-2.15220E+01 1.11766E+01-5.81207E+00-5.41455E+00
 -1      1647 8.99011E+01-1.06054E+01-2.77818E+01-2.69832E+02-2.22209E+01 2.70956E+01
 -1      1648 2.63291E+02-1.19627E+02-2.28187E+01-2.18471E+02-6.28259E+01-3.90302E+01
 -1      1649-1.46662E+01-2.78687E+02-1.46417E+01-1.68477E+02 1.19578E+02 1.76257E+01
 -1      1650 7.04228E+01-4.87532E+02-4.54910E+01-1.51438E+02 1.03180E+02-6.14874E+00
 -1      1651-1.07194E+02 8.51454E+02 9.54003E+01-2.43197E+02 1.55537E+02 2.33073E+01
 -1      1652 1.79881E+03-3.14800E+01-5.55785E+01-1.33974E+01-4.87894E+00-2.25403E+01
 -1      1653-2.27987E+02 3.26812E+01-6.30452E+00 1.45863E+02 1.60353E+01 2.68256E+01
 -1      1654 9.11167E+02-3.58299E+01 2.76412E+01 1.12078E+02 1.67186E+01 7.56804E+01
 -1      1655 6.73285E+02 1.34296E-01 1.07489E+01 1.13148E+02 1.75314E+01 6.96614E+01
 -1      1656-4.07837E+02 5.41359E+01 1.31840E+01-1.96497E+02 6.45732E+01 3.87161E+00
 -1      1657-1.26697E+03 5.98482E+01 1.03027E+01 9.46714E+00-8.40471E+00-9.14172E+00
 -1      1658-1.23167E+03 1.04435E+02-2.40546E+01-8.66900E+01-3.28248E+01-1.87636E+01
 -1      1659-1.29272E+03 5.50501E+01-5.90635E+01-1.05099E+02 1.83614E+01 4.77548E+01
 -1      1660-1.17581E+03 5.02105E+00 1.21055E+01-1.17740E+01 2.93973E+01 1.12220E+01
 -1      1661 1.68578E+03-1.95367E+01-1.84793E+00-6.66858E+01-1.74638E+01 4.92146E+01
 -1      1662-4.18439E+03-4.21476E+01-1.57513E+01-5.67495E+01 2.07022E+01 6.45319E+01
 -1      1663-4.09731E+03 1.51633E+01-6.21939E+00-5.48640E+01-2.69901E-01 2.90857E+01
 -1      1664-4.10712E+03-2.35060E+01-6.17375E+00 4.25398E+00-1.15091E+01-2.62506E+00
 -1      1665-1.51661E+02 7.16356E+00 2.90869E+00-6.88745E+01 2.48696E+00-1.97538E+00
 -1      1666-4.69209E+01 1.39213E+01-2.41588E+00 5.28652E+01-1.52475E+01 3.54595E+00
 -1      1667 2.73804E+01 2.91482E+01-1.28778E+01 7.14205E+01-4.36616E+01 8.94482E-02
 -1      1668-1.32614E+01-1.32726E+02 8.85459E-01 3.14949E+01-3.76566E+01 8.60570E+00
 -1      1669 2.69613E+01 9.34406E+00-1.58719E+00 1.25760E+01 4.79894E+00 1.10896E+01
 -1      1670 1.62749E+02 4.33942E+01-1.67950E+01 7.27909E+01 2.65597E+01-2.29601E+01
 -1      1671 3.44765E+02 3.71632E+01-3.68289E+00 4.66325E+01 1.57610E+01 3.95652E+00
 -1      1672 8.86812E+01 8.76298E+01-1.86706E+01 1.10304E+02-2.77793E+01-3.24555E+01
 -1      1673 1.24876E+01 1.45199E+01-2.17451E+01 5.70008E+01 1.56410E+01-2.78656E+01
 -1      1674-8.56477E+01-6.11946E+01 1.44147E+01-4.08477E+02 2.90133E+01 3.47108E+01
 -1      1675-1.47391E+01-2.58879E+02 2.35045E+00 5.06950E+01 3.59280E+01-5.53547E+00
 -1      1676-8.65368E+01 2.13152E+01-4.43052E+00 5.98944E+01 6.64550E+00-2.60380E+00
 -1      1677 1.79582E+01-9.47067E+01-1.20404E+01 5.72347E+01 3.09705E+01-2.02049E+01
 -1      1678 1.15571E+03 5.43160E+01 6.39867E+01 1.07587E+02 3.06186E+01 3.28762E+01
 -1      1679 1.11774E+03-3.16615E+01 8.64030E+01-1.79078E+01-2.61581E+01 4.43622E+01
 -1      1680 1.24063E+03 1.89322E+02 1.53415E+02 6.72497E+01 6.93649E+01-8.60654E+01
 -1      1681-2.70728E+01 1.54552E+02 3.86464E+00 5.23108E+01-3.51596E+01-4.87807E+00
 -1      1682 3.51818E+01-1.19292E+02 7.46130E+00 6.22592E+01-7.63800E+00-1.41433E+00
 -1      1683 2.43948E+02 4.95623E+02 2.13431E+01 3.89207E+01-9.10577E+00 3.99250E+01
 -1      1684 6.93126E+01-9.75788E+01-1.09946E+01-1.28474E+01 1.45601E+01 1.12030E+01
 -1      1685 2.82668E+01 4.68481E+02 3.89494E+01 8.12661E+01 1.63576E+01 1.70756E+00
 -1      1686-2.49292E+02 2.23468E+01 1.78213E+01 7.95260E+01 9.46081E+00 4.38340E+01
 -1      1687-9.61115E+00-6.88703E+01-7.12509E+00 1.15349E+02 3.78186E+01-2.86598E+01
 -1      1688-5.18067E+02-1.10595E+01-7.27909E+00 8.07234E+01-2.69180E+01 4.01365E+01
 -1      1689-1.30447E+02 1.99258E+01 1.15956E+01 1.12781E+02-5.08598E+01 2.80267E+00
 -1      1690 1.19684E+03 4.49248E+01 5.87801E+01 1.29932E+02 4.31264E+00-4.12407E+01
 -1      1691 1.27986E+03 1.95142E+02 1.39013E+02 1.24896E+02-7.10555E+01 4.11918E+01
 -1      1692-1.78565E+02 1.14995E+02-4.56279E+01-1.60138E+01-9.55421E+00-8.09816E+01
 -1      1693 3.62982E+00 3.14031E+00 6.26269E+00-2.11032E+00 7.47711E-01-2.85369E+00
 -1      1694 4.27858E-01 1.17577E+00 1.48155E+00-1.29404E+00 2.74986E-01 8.78592E-01
 -1      1695-1.61187E+00 1.41245E+00 1.85617E+00-8.92185E+00-4.03783E+00 2.61830E+00
 -1      1696 9.35430E+02 2.00670E+00 3.07636E+01 1.15113E+01-1.06027E+01-3.80125E+00
 -1      1697 8.38743E+02 1.83649E+02 3.91783E+01-4.98795E+01-1.30989E+00 9.81521E+01
 -1      1698 9.50721E+02 2.67860E+01 1.55988E+01-4.68127E+01 4.03397E+00 4.99121E+01
 -1      1699 3.38137E+01 9.38165E+01 2.63636E+01 5.98789E+01 3.55415E+01 1.60379E+00
 -1      1700 1.04225E+02-8.62758E+01-3.38361E-01 5.71870E+01-3.69307E+00-1.50523E-01
 -1      1701-7.61096E+01-2.51041E+01-8.92714E+00 4.12116E+01 5.10627E+00 3.53637E+00
 -1      1702 6.46145E+00-1.85157E+02-9.08648E+00 5.52313E+01-3.05570E+01 6.33951E+00
 -1      1703-5.66056E+01-6.10716E+01 8.70591E+01-1.41483E+02 3.50040E+01-5.16997E+01
 -1      1704-1.13363E+03-1.83889E+02-1.02698E+02-4.05517E+01-2.25138E+00-1.50738E+01
 -1      1705-1.23016E+03-1.26553E+02-8.07605E+01 3.97972E+00 1.01821E+01 3.67676E+01
 -1      1706 3.79275E+01 1.26396E+02-1.47754E+01 7.12606E+00-2.42381E+01 9.60512E+00
 -1      1707-1.43208E+00 3.93851E+01 2.07554E+01-8.06761E+00-4.62210E-01 3.45703E+00
 -1      1708 8.42169E+01 1.22524E+02 2.04038E+01 1.10416E+02 4.46372E+01 1.32293E+01
 -1      1709-4.00712E+03 1.21316E+01 4.79183E+00-5.83783E+01 1.61576E+01 5.11173E+01
 -1      1710-2.31441E+03-2.77384E+01 5.17383E+00-7.27853E+01 6.55119E+00 1.43978E+01
 -1      1711-3.92589E+03-3.72850E+00-7.60963E+00-7.00821E+01 4.53239E+00 4.15766E+01
 -1      1712-9.96130E+01 1.65895E+00 2.29389E-01-6.93554E+01 4.22548E+00-3.04750E+01
 -1      1713-8.08625E+02 1.58956E+02-7.52677E+01 6.47904E+01 2.44444E+01-7.36055E+01
 -1      1714-6.06618E+02 9.56470E+01-5.16065E+01-2.91555E+01 6.67868E-01-5.08281E+01
 -1      1715 6.67259E+02 3.03316E+02-8.41246E+00-2.95403E+02 3.96061E+01-1.85714E+01
 -1      1716 1.01903E+03 2.78963E+02 7.35086E+01-2.52986E+02-5.35485E+01 1.12597E+02
 -1      1717 9.10533E+01-1.38561E+01-4.98820E+00-6.06383E+01 1.12090E+00 5.07092E+00
 -1      1718-7.84616E+02 2.76572E+01 8.94377E-01-8.07566E+01 2.03549E+00-4.41931E+01
 -1      1719-3.70011E+00 3.13319E+01-8.25032E+00-1.01469E+02-3.10782E-02-2.59080E+00
 -1      1720 1.61512E+03 4.74932E+00 5.11378E+00-5.80591E+01 1.27331E+01-3.88075E+01
 -1      1721 2.28121E+02-5.33439E+00-1.22775E+00-6.23072E+01 6.70601E-01 7.00264E+00
 -1      1722 1.97013E+02-6.94898E+00 2.50162E+00-7.63690E+01-3.93350E+00 2.51163E+01
 -1      1723-2.46012E+03 4.60420E+01-7.33452E-01-5.28291E+01 9.55185E-01-4.16550E+00
 -1      1724-6.24499E+02-6.17759E+02 1.44366E+01 4.08868E+02 2.88259E+01-2.31073E+01
 -1      1725 1.13962E+03 3.85128E+01 6.22277E+00-4.98480E+01 9.32440E+00-3.30237E+01
 -1      1726 1.02980E+03 8.71053E+00 1.16822E+01-3.41429E+01-2.34748E+00-3.51856E+01
 -1      1727-7.20109E+01-1.71445E+01-1.16747E+01-5.08225E+01 1.66101E+01-3.86221E+01
 -1      1728-2.42989E+03 1.62125E+02 1.65789E+02-7.90688E+02 3.88225E+02-1.89852E+02
 -1      1729-2.57730E+03-1.38416E+02 1.22630E+02-6.59589E+02 8.08225E+01-2.63200E+02
 -1      1730-1.44108E+03 3.84551E+01-3.48733E+01 9.50451E+00-1.71242E+01-7.06950E+01
 -1      1731-1.67791E+03-2.46992E+02 2.00633E+01 3.48495E+01-6.06170E+01 7.05020E+01
 -1      1732-4.08825E+03 2.71612E+01-3.00656E+00-5.49374E+01-6.71149E+00-4.17490E+01
 -1      1733-4.18036E+03-2.05136E+01 3.05710E+01-6.58334E+01-7.58234E+00-5.54804E+01
 -1      1734-4.16810E+03 3.13529E+01 1.60198E+01-1.10193E+01 1.52914E+01 8.10908E+00
 -1      1735 1.16267E+03 9.57473E+00 1.58826E+00 6.03530E+00-9.07319E-01 2.26525E+00
 -1      1736 1.11113E+03-1.68323E+01-2.43833E+00-3.61270E+01-8.73642E+00 2.05600E+01
 -1      1737 1.06025E+03-4.97828E+01-2.66853E+01 8.61269E+00 2.26642E-01-1.18576E+01
 -1      1738 1.63049E+03-3.13528E+00-5.16783E+00-3.31785E+01-1.76228E+01 3.62832E+01
 -1      1739 1.58243E+03 4.47881E+00 1.22977E+01 3.51336E+00 5.50156E+00 1.34218E+00
 -1      1740 1.62607E+03 4.60762E-01-1.95629E+00-1.61393E-01 2.65153E+00-1.19687E+00
 -1      1741-8.22947E+02-8.62841E+01 2.14621E+01 2.22537E+01 3.74743E+00-8.35688E+00
 -1      1742-8.79339E+02 4.47206E+01 4.04244E+01-8.08120E+00-3.37986E+00-4.49895E+00
 -1      1743-8.64501E+02-5.35416E+00 9.55189E+00 2.51044E+00 1.23301E+00 3.09599E+00
 -1      1744-8.46767E+02-3.43070E+01 9.30114E+00 7.39497E+00 2.21942E+01 2.46076E+01
 -1      1745-2.10415E+01 2.06650E+02-1.18630E+00 2.82043E+01 2.87278E+01 5.49323E+00
 -1      1746 1.02363E+02 1.37405E+02-2.61883E+00 1.18147E+02-3.57004E+01-2.37201E+00
 -1      1747 4.61447E+00 3.95335E+00 8.95599E-02 4.39845E+00-5.60858E-01-1.91979E-01
 -1      1748 1.60792E+00 1.78189E+01 2.59224E+00 3.80255E+00 1.95690E+00-5.18264E-01
 -1      1749 1.62509E+00 4.28656E+00-1.34386E-01 2.02173E+00 9.23877E-01 3.16982E-01
 -1      1750 4.65669E-01 1.30357E+01 1.38684E+00 1.56373E+00 2.56431E+00 1.61555E+00
 -1      1751-8.41328E+02-7.18992E+02-1.48589E+02-2.80330E+01-2.41683E+02-1.24690E+02
 -1      1752-9.27597E+02-1.24120E+02-2.83948E+01 7.53223E+01-8.53747E+01-1.35706E+01
 -1      1753-8.24989E+02 4.41188E+01 2.09562E+01-1.02840E+01-3.36165E+01-2.94866E+01
 -1      1754 5.13315E+01 8.71009E+01 1.74333E+01 7.53287E+01 1.21103E+01 1.27626E+01
 -1      1755 1.96957E+01 2.04060E+01-1.33364E+01 5.48594E+01-1.36574E+01 1.50101E+01
 -1      1756 7.00437E+01 6.07260E+01-1.90127E+01 1.03088E+02 2.31036E+01 2.30791E+01
 -1      1757 9.38564E+01 5.34445E+01 5.56263E+01-3.32605E+01 6.53476E+00-8.86649E+00
 -1      1758 7.15221E+01 2.25523E+01 5.23007E+01 5.86974E+00 5.39277E+00-4.65756E+01
 -1      1759 6.23091E+00-4.36049E+01 1.35650E+01 2.83553E+01-1.12424E+01 5.17737E+01
 -1      1760 4.51213E+01 8.68323E+00 2.36921E+01-4.34315E+00-3.30004E+00 4.34169E+00
 -1      1761 3.67538E+01 1.12779E+01-1.95227E+00-2.13980E+01-9.82543E+00 1.28819E+01
 -1      1762 3.82108E+02 2.08921E+02 6.44581E+01 7.22708E+01 7.35052E+01-1.65655E+00
 -1      1763-2.72484E+01 1.48532E+01-2.43115E+01 6.98050E+01 1.16218E+02 1.27936E+02
 -1      1764-7.69675E+01-1.16670E+01 4.92333E+00 9.17468E+01-1.34067E+02-1.56360E+02
 -1      1765-4.02863E+02 1.82406E+02 6.69437E+01 1.00052E+02-4.96589E+01-7.40461E+00
 -1      1766-4.69185E-04 1.30454E-03-1.18780E-03 1.91234E-04 8.65066E-04 1.21526E-04
 -1      1767-1.68430E+02 1.20487E+01-5.04167E+00-6.83160E+01-6.00594E+00 1.09415E+01
 -1      1768-1.55622E+03 2.67184E+00-4.20550E+00-5.57066E+01-7.86061E+00-2.71368E+01
 -1      1769 2.35216E+02-1.10013E+01 1.17039E+01-6.38618E+01 7.22513E+00-1.13170E+01
 -1      1770-5.73225E+02-1.92027E+02-3.04543E+01 1.12882E+02 2.52834E+01 4.60133E+01
 -1      1771-1.23102E+03 1.00752E+02 7.18200E+01 2.79881E+02-7.63874E+00-1.77446E+01
 -1      1772-8.26497E+02 2.84512E+02 4.52457E+00-5.03592E+01 6.89053E+01 8.65009E+01
 -1      1773-1.52051E+03-1.81146E+02-1.07215E+02 1.53209E+02-3.67086E+01-5.60459E+01
 -1      1774-1.26132E+03 8.69063E+01 2.05801E+01 2.72535E+02 3.27894E+01-1.47585E+02
 -1      1775-9.17975E+02-9.95324E+01 3.94437E+01 1.47087E+02-8.05935E+01-1.36677E+02
 -1      1776-1.01266E+03-1.36600E+02 1.80824E+01-3.35378E+00 7.04154E+00-5.13620E+00
 -1      1777-2.09550E+01-1.01820E+03-1.15809E+01 7.95257E+01-2.04349E+01-8.21953E-01
 -1      1778 3.71716E+01-1.86288E+02-1.01068E+01 8.15638E+01 5.40470E+00 8.83143E+00
 -1      1779 5.96912E+01 4.51262E+01 1.52054E+01 9.76177E+01 3.10071E-01 1.29760E+01
 -1      1780 2.69743E+01 8.17402E+02-7.81182E+00 8.57863E+01 4.78622E+01-4.13364E-01
 -1      1781-2.18110E+02 1.58484E+02-2.63604E+00 1.65057E+01-1.07249E+00 3.59319E+01
 -1      1782 2.16565E+01-1.31177E+01-4.91064E+01 1.93540E+01 7.37572E+00-1.84945E+01
 -1      1783 6.87681E+01-1.16104E+01-5.04287E+00-2.05378E+01 5.42097E+00-6.13727E+00
 -1      1784-1.50869E+03-1.68021E+00-8.48989E+00 1.02405E+02 3.38508E+01 1.50969E+02
 -1      1785-1.67955E+03 4.43581E+01-2.88518E+01 4.99333E+01-3.24607E+01 5.30480E+01
 -1      1786-1.60995E+03 2.30195E+01-2.38958E+01 2.55471E+00 2.45733E+00 5.43055E+00
 -1      1787-8.12051E+01 3.67960E+01 1.20258E+01-4.68372E+00 9.94681E+00 4.21458E+00
 -1      1788-5.87333E+01 1.63808E+02 6.42848E+01 5.04812E+00-5.68024E+01 4.87547E+00
 -1      1789-1.70646E+02-9.97211E+01-4.79757E+01 2.27959E+01-4.19305E+01-2.81337E+00
 -1      1790-1.47445E+02-3.95187E+00-1.10371E+00-1.28332E+00-7.25615E+00-9.54807E+00
 -1      1791-1.17047E+03 1.58579E+01 1.04234E+01 9.64261E+00 6.32378E+00-6.44883E+00
 -1      1792 7.57472E+02 1.48321E+01 2.42104E+01 1.51901E+02 3.29530E+01 5.77040E+01
 -1      1793-5.78013E+02-1.61454E+02-2.07055E+02-1.75363E+02-1.44093E+01 3.03116E+00
 -1      1794-1.00499E+03 1.58251E+01-8.56345E+01-1.04876E+02-5.14103E+01-1.29167E+02
 -1      1795 1.93552E+01 1.58282E+02 5.91178E+01 4.31750E+01 7.41636E+01-4.32361E+01
 -1      1796-6.80311E+01 9.88470E+00-1.93552E+01 3.42518E+01-6.29463E+00 4.46486E+01
 -1      1797 1.52711E+03-2.93617E+01-4.43890E+00-5.08375E+01-1.19862E+01 2.82775E+01
 -1      1798-1.25997E+02 3.74144E+01 2.54601E+00-5.41403E+01-1.32975E+01 1.25935E+01
 -1      1799 1.22881E+03-4.22983E+01-1.97044E+01-4.41770E+01-1.28281E+01 3.38849E+01
 -1      1800-8.08629E+00-4.19704E+01-2.15007E+01-5.01683E+01-1.43043E+01-4.93283E+01
 -1      1801 4.83167E+01-4.45976E+00 3.78264E+00-2.00247E+00 6.07776E+00-1.05163E+00
 -1      1802 2.67977E-04-2.04202E-03 4.20312E-03 7.54990E-05 2.18743E-03 1.51562E-04
 -1      1803-1.41895E+00 1.27031E+02-4.73451E+01 1.15090E+01 1.18528E+01-1.70604E+00
 -1      1804 7.31441E+01 9.65258E+01-6.52413E+01-6.36076E+01 4.49999E+01-3.69135E+00
 -1      1805 4.16897E+01 5.97389E+01-2.17383E+01-5.12880E+01 3.02319E+01 1.18575E+00
 -1      1806 9.73913E+02 3.66292E+02 1.96814E+02 2.21877E+02-3.27033E+01 2.58739E+02
 -1      1807 1.51766E+01 2.14282E+02-9.01865E+01 1.78743E+01-5.80440E+00 5.06970E+01
 -1      1808 8.07143E+02 3.51589E+02 1.36254E+02 4.43941E+02 1.19970E+01-4.59282E+00
 -1      1809 2.72756E+02 2.89332E+02-2.60626E+01 1.83446E+02-7.67731E+01-1.10063E+02
 -1      1810-5.41579E-01 3.85884E+01 1.70250E+01 1.29329E+02-2.74566E+01-2.41895E+01
 -1      1811-8.00280E+01-1.05622E+03-7.76394E+01 9.04602E+01-1.05649E+01 9.35432E-01
 -1      1812-1.77154E+02 3.51215E+01 1.13136E+01-5.26095E+01 1.09761E+02-2.94418E+01
 -1      1813-2.95816E+01 1.79439E+02 5.09125E-01-2.66187E+02 4.95827E+00 3.83383E+01
 -1      1814-6.10875E+02 4.95097E+01-1.46205E+01-1.77445E+02-2.37490E+00-9.70820E+01
 -1      1815-3.03179E+02-2.30036E+01 1.80062E+01-1.89408E+02-1.67646E+00-9.95690E+01
 -1      1816 3.93024E+01-7.35260E+01 2.64103E+01-1.36425E+02-1.73808E+01 6.98663E+01
 -1      1817-3.84667E+01-5.05567E+01-4.11110E+01-6.12889E+01 1.21536E+01 8.21930E+00
 -1      1818-6.38272E-01-3.44042E+02-4.61571E+00-3.34204E+00-6.54017E+00-2.64246E+00
 -1      1819 1.43029E+01-2.53980E+02 1.88552E+00 5.70054E+01-3.86266E+01 3.28506E+00
 -1      1820-2.08835E+01-3.85395E+02 3.53460E+00 4.62917E+01-3.01275E+01 7.83235E-01
 -1      1821 2.57856E+01-2.48090E+00-6.33502E+00 4.26887E+00-9.03128E+00-1.50072E+01
 -1      1822-9.92213E+01-1.58048E+02-6.76924E+01 4.26596E+01 7.28836E+01 2.93322E+01
 -1      1823 5.30623E+01-5.52553E+01-2.19973E+01 1.40493E+02-2.03619E+01-1.69270E+01
 -1      1824-8.83621E+02-7.68063E+01-7.87894E+01 1.41774E+02 2.54676E+01-5.52502E+01
 -1      1825 6.75274E+02 4.25013E+02 1.67515E+02-8.01210E+02-2.40424E+02-7.70057E+02
 -1      1826 6.40795E+01 3.04313E+02-1.51425E+02-5.78411E+02-1.45061E+02-3.15260E+02
 -1      1827-7.37173E+00 1.85536E+02 3.11525E-01 4.99949E+01 3.24862E+01 1.52983E+01
 -1      1828-3.39142E+01 3.06088E+02 8.00660E+00 2.83023E+01 2.90274E+01 5.26598E+00
 -1      1829 8.54371E+00-1.07561E+02 1.92351E+00 6.80985E+01 7.72229E+00 1.23318E+01
 -1      1830-1.13622E+02 1.47051E+02 6.20970E+01 1.49504E+01 4.03651E+01-2.16475E+01
 -1      1831 2.25015E+01-1.45094E+02-5.74568E+01-2.62653E-01-5.01757E+01-1.74798E+01
 -1      1832-2.77963E+01-4.35981E+00-1.95874E+01 1.57668E+00 6.79197E+01 8.65992E+01
 -1      1833-1.60856E+01-4.87273E+02-2.21939E+01 6.99400E+01-2.97873E+01 1.40963E+01
 -1      1834-5.96761E+01 9.03499E+02 1.92241E+01 7.52424E+00 1.24908E+01 6.13147E+00
 -1      1835-5.12304E+00 5.22181E+01 8.19108E+00 1.09653E+02-6.29877E+00-5.09575E+00
 -1      1836-3.75658E+02-1.16191E+03-9.98997E+01 4.85645E+01-6.65579E+01-1.05114E+02
 -1      1837-3.05007E+03-1.74730E+02-9.12474E+01-2.38225E+02 6.39017E+00 1.00076E+02
 -1      1838 4.29706E+02 3.05381E+02 3.97960E+01 2.50002E+02 7.50614E+01 9.26202E+01
 -1      1839 8.65637E+00 5.23111E+02 8.54091E+00 5.55141E+01 2.68876E+01 1.53078E+01
 -1      1840-3.10587E+01 3.33696E+02 8.21024E+00 4.89124E+01 3.88030E+01-4.40580E+00
 -1      1841-4.76598E+01-1.69265E+01-1.19755E+00 9.06272E+01 1.49303E+00 4.42613E+00
 -1      1842 1.45123E+02 1.11169E+01 3.25593E+00-7.33637E+01-1.38766E+01 3.45606E+01
 -1      1843-9.41672E+02 2.65584E+01 5.82326E+00-4.67677E+01 1.47650E+01 3.57040E+01
 -1      1844-8.78114E+02-5.06895E+00-1.53964E+01 3.38944E+00-5.70244E+00 1.65286E+00
 -1      1845-9.47082E+02 4.71678E+01 1.61572E+01 1.61724E+01 4.13889E+00-2.39537E+00
 -1      1846-8.49951E+02-1.63270E+01-1.32583E+00-7.58806E+01-2.28954E+01 3.59291E+01
 -1      1847-2.43760E+03-2.59328E+01 2.28850E+01-6.60888E+01-1.46844E+01-8.09876E+01
 -1      1848-3.43759E+03 1.06072E+01 1.16859E+01-5.45053E+01-4.14535E+01-8.45766E+01
 -1      1849-1.61471E+03 1.96804E+01-2.90346E+01-7.68278E+01-2.36073E+01 7.47164E+01
 -1      1850-2.64876E+03-1.02811E-01-1.25930E+01-6.80540E+01-1.86327E+00 4.85156E+01
 -1      1851-6.05770E+02-1.25116E+02 1.12846E+01 4.39470E+01-8.66808E+00 1.27319E+02
 -1      1852 1.48200E+02 1.26836E+02 3.87350E+01-4.69362E+01-2.93072E+01 4.79222E+01
 -1      1853-1.63112E+03 3.05650E+01-2.92226E+01-3.01359E+01-1.53869E+01-1.72616E+01
 -1      1854-1.97128E+02 4.21857E+01 2.66610E+01-4.13257E+01-5.39506E-01-5.08961E-01
 -1      1855-1.35639E+03-4.09354E+01-1.38431E+01-2.54144E+01-1.78287E+01 3.02500E+01
 -1      1856-1.43699E+03 1.33834E+01-2.16935E-01-4.66504E+01 1.53853E+01 2.33942E+01
 -1      1857-1.41093E+03 6.74518E+00 5.79416E+00-5.17936E+00 2.68727E+00 2.71269E+00
 -1      1858 6.45124E+01 1.03677E+02-5.66665E+01-6.15027E+01-2.04762E+01-3.48782E+00
 -1      1859 4.04020E+01 3.06422E+01 7.73482E+00-3.52038E+01-9.75839E+00-7.44451E+00
 -1      1860 1.57163E-05-6.86995E-03 6.70840E-03-2.49107E-05 5.35058E-03 1.40084E-04
 -1      1861-5.63157E-04-3.50807E-03 2.98780E-03 3.87834E-04 1.04246E-03 4.95017E-06
 -1      1862 3.01878E+01-6.48209E+02-6.16973E+01 7.57068E+02-1.39382E+02 2.83591E+02
 -1      1863 3.15691E+02-1.09893E+03-2.38399E+02-6.81495E+02 6.92181E+02-2.52596E+02
 -1      1864-7.65166E+01 1.84281E+02-5.37682E+01-1.45990E+02-1.54058E+01-8.81556E+01
 -1      1865 9.22025E+02-7.62620E+01-8.20643E+00-1.93066E+01 8.65013E+00-7.11645E+00
 -1      1866 7.07933E+02 4.71772E+01 8.21460E+00 1.06640E+01-2.41775E+00-9.58838E-01
 -1      1867-5.63174E-04-1.91331E-03 2.29464E-03-1.06241E-03 3.79412E-03-3.89761E-04
 -1      1868-9.13180E+01 9.16857E+02 6.11149E+01-1.71857E+02-1.10674E+02 1.45798E+01
 -1      1869 4.18380E+01 4.98123E+02 1.66036E+01-1.96736E+02-1.54362E+02 2.02830E+00
 -1      1870 6.09160E+02-4.86127E+00-1.79631E+01 4.93638E+00-1.14831E+01 4.77212E+00
 -1      1871-1.59324E-04 1.00575E-05 9.85006E-04-8.56243E-05-5.22191E-04-2.90433E-05
 -1      1872 1.04325E+03 7.60262E+01-2.91838E+01-1.34120E+02-5.06115E+00-1.30347E+01
 -1      1873 3.41289E+02 9.13329E+01 3.30357E+01 2.18081E+01 4.54373E+00-1.24369E+00
 -1      1874 2.67685E+02 4.24444E+01 1.29675E+01 5.65617E+01 1.94214E+01 3.43996E+01
 -1      1875 4.64449E+02-1.77669E+02-7.31061E+01-1.07549E+01 1.01279E+01 5.16843E+00
 -1      1876 4.68353E+02-1.16566E+01 6.74024E+00 8.89075E+01 6.29551E+00 4.71452E+01
 -1      1877 5.22170E+02 3.58403E+02 9.38059E+01-5.11516E+01 2.17830E+01-1.71079E+02
 -1      1878-1.49869E+03-1.63607E+02-8.34625E+01-1.86699E+01-2.62740E+00 9.36679E+00
 -1      1879-1.66929E+03 8.40255E+01-3.20774E+01 1.08851E+02 4.04043E+01-1.08363E+02
 -1      1880-1.43358E+03-3.15270E+01-5.89941E+01 2.13409E+02-6.48425E+01-1.70893E+02
 -1      1881-1.57442E+03-1.20168E+01-8.28877E+00 4.16901E+00 1.80058E+00-3.05711E+00
 -1      1882 1.00895E+03-4.90996E+01-1.37116E+01-5.69528E+01-1.27662E+01 4.38582E+01
 -1      1883 1.80778E+02-3.57893E+01-1.87628E+00-4.55769E+01-6.79082E+00-7.61667E+00
 -1      1884-9.38051E+02-1.85522E+01-2.05450E+00-4.08542E+01-2.24251E+00-2.48849E+01
 -1      1885-2.54225E+03-3.66226E+02 1.13679E+02-3.50899E+02-8.31794E+00-1.26779E+02
 -1      1886-2.37117E+03-7.92371E+01-6.99635E+01-3.01221E+02-1.55678E+02-2.87254E+02
 -1      1887-2.23643E+03 6.13503E+01 9.63173E+01-2.78691E+02-3.03698E+01-1.58889E+02
 -1      1888-2.46443E+03-1.69719E+02-1.98850E+02-2.63503E+02-3.67966E+01-6.89892E+01
 -1      1889-4.85485E+02 6.93248E+00-9.97966E-01 8.25627E+01-2.08622E+00-2.88788E+01
 -1      1890-7.05194E+02 1.33266E+02 5.68718E+01 9.36567E+01 3.47560E+01-6.84414E+01
 -1      1891-6.54227E+02-2.08126E+02-9.65631E+01-4.79941E+01-9.45487E+00-2.39359E+01
 -1      1892-4.05954E+02 1.81207E+02 3.04459E+00-1.68687E+02 4.10042E+01 4.96940E+01
 -1      1893 1.12628E-04-7.37802E-04 2.88369E-03 5.97669E-05 3.65347E-03 9.86510E-05
 -1      1894 4.29183E+00 7.35245E+00 2.48668E+00 3.06196E+00-9.98418E-01-2.05942E-01
 -1      1895-2.22110E+00 1.53867E+01 2.15087E-01-1.18566E+00 2.01861E+00 4.82009E-01
 -1      1896 2.26731E+00 1.79835E+01 2.24329E+00 4.78811E+00-3.59431E+00 1.48858E-01
 -1      1897-1.61506E+00 1.74418E+01-5.38863E+00 6.63126E+00-1.21003E+00 1.56875E+00
 -1      1898-3.99984E+01 4.14372E+02-3.28400E+01 3.15622E+01-1.30099E+01-2.58934E+01
 -1      1899-1.02625E+03 2.62071E+01 1.18276E+01-6.46936E+01 1.15254E+01 2.50714E+01
 -1      1900-9.34969E+02-4.05833E+01 1.09291E+01-4.34449E+01-2.65296E+01 3.31791E+01
 -1      1901-1.00102E+03-8.99957E+00 3.04850E-01-7.09631E+00 4.98033E+00 5.70784E+00
 -1      1902-3.78711E+01 2.89719E+01-5.27677E+01 1.89521E+02 4.45620E+01 3.52978E+00
 -1      1903 7.07351E+02 1.41558E+02 7.34018E+01 8.12383E+01 7.77668E+00-7.68696E+01
 -1      1904 1.00144E+02-7.43680E+01 3.44658E+01-5.23274E+00-3.99453E+01 6.51511E+01
 -1      1905 8.22397E+02-5.77262E+01 6.36128E+00-1.76640E+01-5.07963E+01 1.56174E+01
 -1      1906-4.01325E+03 2.72336E+01 1.04799E+01-3.98472E+01-3.10681E+01-3.00004E+01
 -1      1907-3.93400E+03-2.10410E+01-1.08201E+01-1.19471E+01 1.45010E+00-4.46928E-01
 -1      1908-3.90566E+03-3.13473E+01-2.10430E+01-6.59418E+01 1.23919E+01-3.29389E+01
 -1      1909 6.63053E+01-1.39029E+00-5.00167E+00-3.28089E+01-9.30429E+00 9.66079E+00
 -1      1910 2.52773E+01 3.25036E+00 8.87367E+00 6.93562E+01-4.10487E+01-4.50086E+00
 -1      1911-1.31604E+03 4.58297E+01 1.50407E+01-8.27764E+00-5.46346E+00 5.66980E+00
 -1      1912-1.35734E+03 4.46564E+01 3.00848E+00-3.49110E+01 2.65538E+01 2.80991E+01
 -1      1913 8.95299E+00-1.76042E+02-2.00448E+00 3.58517E-01 7.18881E+00 4.34058E+00
 -1      1914-2.02879E-01 2.89131E+01 7.96732E+00-4.14167E+00-8.11378E-01-6.05516E+00
 -1      1915 1.02174E+01-1.67378E+02-1.94931E+00 3.96890E+01 2.40894E+01 3.66172E+00
 -1      1916-1.61726E+01 3.07580E+01 2.97522E-01 1.80801E+01-5.12274E+00-5.37911E-01
 -1      1917-2.72299E+01 2.16385E+01-4.26446E+00-1.01195E+01-4.14690E+00-4.51115E+00
 -1      1918-2.89044E+01 4.74741E+01 1.73642E+01 1.45508E+01 3.56104E+00-5.14876E+00
 -1      1919-9.27793E+01 1.79084E+02 1.28539E+01-1.42415E+02-1.63790E+01-9.19528E+01
 -1      1920 1.03337E+03 3.13873E+02 1.84589E+02 6.27590E+01 3.44411E+01-2.83430E+02
 -1      1921 3.54926E+01-1.05916E+02 1.25189E+01-1.56266E+02 1.87410E+01-3.98071E+01
 -1      1922-6.15247E+00-7.59800E+01-8.89811E+00 7.13386E+01 6.66643E-01-1.05568E+01
 -1      1923-1.12788E-01 6.67147E+02 1.60740E+01 5.61880E+01 3.74372E+01-1.25641E+00
 -1      1924 6.04723E+01-1.69797E+02 5.47851E+00 4.85372E+01-2.87151E+00 2.91602E-02
 -1      1925-9.25166E+02-5.66165E+00 6.23413E+00 6.97490E+00-4.46405E+00-5.57612E+00
 -1      1926-9.90424E+02-1.13260E+01 1.33046E+00-6.55277E+01 2.90854E+00-3.22999E+01
 -1      1927-8.99024E+02-1.43839E+01 1.83321E+01-4.30571E+01 1.93665E+01-1.39286E+01
 -1      1928-5.55115E+02 2.41272E-01 1.57255E+02 2.64456E+02-1.23638E+02 2.69743E+02
 -1      1929-8.15034E+02-2.25435E+02-1.80923E+01 1.20500E+02 1.53544E+01 2.37186E+01
 -1      1930 3.84193E+01 3.98534E+01-5.33290E+01-2.06626E+01 3.70504E+01-7.66426E+00
 -1      1931-1.23937E+03-2.82722E+01 5.14753E-01-6.52140E+01-9.73092E+00 3.32206E+01
 -1      1932-2.67045E+03 2.83108E+00-1.33201E+01-4.73959E+01-2.18509E+01 5.23973E+01
 -1      1933-5.43327E+01 9.66073E+02 7.09719E+01 4.17041E+00 4.88611E+01 5.20370E+00
 -1      1934-7.94146E+02-3.47386E-02-1.23857E+01 1.45175E+02-7.33034E+00 2.94319E+01
 -1      1935 1.14579E+01 4.76828E+02-2.73414E-01-3.18421E+00-1.04030E+01 3.84678E+00
 -1      1936-1.62659E+00 6.64762E+02 9.22504E+00 3.41502E+01-2.15949E+01-4.74036E+00
 -1      1937-1.69596E+01 7.65339E+02 6.00116E+00 4.87905E+01-3.66039E+01 1.48780E+00
 -1      1938-1.19207E+00 1.83751E+00 1.88960E+01 6.56168E+01-3.38130E+00-6.44523E+00
 -1      1939 3.75552E+02 7.31836E+01-6.74815E-02 1.11043E+02 1.27537E+01 2.38303E+00
 -1      1940 5.93220E+02 5.53358E+01 1.76160E+01-1.81833E+01 1.67694E+01 1.75902E+01
 -1      1941-2.81307E+02 1.30779E+01 2.44939E+01-1.29276E+02-8.80175E+00 8.73593E+01
 -1      1942-5.10271E+02 1.02479E+02-1.42319E+00-2.86533E+02-2.81183E+01 1.53039E+02
 -1      1943-1.39853E+01 1.52314E+02-2.94034E+01-3.22275E+02 3.41784E+00-5.77165E+01
 -1      1944-1.24899E+02-8.90568E+01-3.04767E+01-3.66872E+02-5.54754E+01-1.57026E+01
 -1      1945 3.59982E+02 5.85832E+01-3.36147E+01-1.81094E+02-5.86469E+00 1.35040E+02
 -1      1946-1.36894E+03-1.27023E+02-1.69729E+02 3.05173E+02 1.85690E+02-3.18226E+01
 -1      1947-1.37391E+03 5.30135E+01-4.85770E+01 2.50793E+02-8.27096E+01 9.71803E+01
 -1      1948-1.01952E+03 5.24164E+01 1.51755E+02 2.38120E+02-1.15022E+02-1.32315E+02
 -1      1949-8.19412E+02 1.79680E+02 4.02037E+01 8.96651E+01 6.66143E+01 1.14259E+01
 -1      1950-5.59236E+02 2.78503E+02-5.96262E+00-2.55822E+01 5.40235E+01 9.04289E+01
 -1      1951 4.50151E+02 1.60547E+03 5.99071E+02 2.27123E+02 8.31314E+01-1.96273E+01
 -1      1952 1.26943E+03 1.46139E+03 9.06712E+02 5.65496E+02 2.99451E+02-2.85296E+02
 -1      1953-3.61245E+03-4.35121E+02-9.80824E+02 7.34734E+02-8.77136E+01 2.62673E+01
 -1      1954-4.46510E+03-1.76467E+03-1.41554E+03 1.38219E+03-8.57837E+01-3.18226E+01
 -1      1955-4.07502E+00-4.71066E+01-1.16231E+01-3.80869E+00-1.90514E+01-2.72618E+01
 -1      1956-9.74099E+02 6.06119E+00-5.75907E+01-1.53266E+02 4.21201E+01 6.43202E+01
 -1      1957 5.02422E+01-6.58496E+01-3.84288E+01 3.02384E+01-1.62329E+01-9.47316E+00
 -1      1958 1.52914E+02-1.28796E+03-4.00276E+02 6.95691E+02 2.03511E+02 1.15292E+02
 -1      1959-2.32172E+02 5.89145E+01-2.24780E+01-6.25209E+01-1.78766E+00 2.51580E+01
 -1      1960-3.55222E+03-3.87464E+00 1.23355E+01-7.85707E+00-2.62585E+00-9.86820E+00
 -1      1961-3.50858E+03-4.47667E+01-2.08687E+01-4.74434E+01 3.11875E+01-3.21131E+01
 -1      1962-3.56726E+03-2.06344E+01-2.47924E+00-4.62100E+01 4.87299E+00 2.22180E+01
 -1      1963-3.47747E+03 2.88428E+01 3.01380E+01 2.26507E+00 1.14760E+01-1.22715E+01
 -1      1964 4.39743E+02-2.34524E+02-8.92009E+01 7.75813E+01-8.14183E+01-4.44635E+01
 -1      1965 7.52849E+02 9.08537E+01 1.27765E+01-2.12383E+02-4.50674E+01 3.51050E+01
 -1      1966-5.10033E+00 6.26295E-01 1.41059E+00-1.31230E+00 1.02761E+00 4.48300E-01
 -1      1967-8.61039E-01 4.22423E-01 1.52096E+00-1.96935E+00 7.62352E-01-1.10853E+00
 -1      1968-6.54393E+00 5.67609E-01 2.95402E+00-5.13338E+00 1.39060E+00-2.35975E+00
 -1      1969-2.47111E+02 2.72858E+01 4.58955E+01 1.44916E+01 1.75805E+01-8.64121E+00
 -1      1970-4.98006E+01-8.37652E+01 1.14611E+02-7.74389E+01-6.14616E+00-3.33747E+01
 -1      1971-1.11472E+03 2.26237E+01 4.78139E+00-7.60956E+00-4.23821E+00 1.75968E+00
 -1      1972-1.05283E+03-2.51683E+01-1.48780E+00-5.58101E+01-2.12292E+01 2.76819E+01
 -1      1973-1.13561E+03 4.45876E+01 1.09970E+01-2.40892E+01 1.80099E+01 2.29541E+01
 -1      1974 1.07351E+01-4.70170E+02-3.76761E+01-1.24332E+01-2.03023E+01-3.68062E+00
 -1      1975 1.51701E+01-5.58963E+02-2.81947E+01 1.37782E+01 1.21157E+01 3.20247E+00
 -1      1976 1.00703E+02-5.24181E+02-3.03291E+01-1.20332E+02-7.20615E+01-5.34359E+00
 -1      1977 1.09475E+01-5.27794E+02-2.80139E+01-9.07071E+00-1.66355E+01-1.58474E+00
 -1      1978-3.45027E-01-2.60949E-01-5.02007E-01 5.03914E-02-4.05893E-01 1.11881E-01
 -1      1979 1.44778E+00 5.17277E-01-4.13268E-01 2.08449E+00-7.65201E-01 2.62205E-01
 -1      1980 8.69265E-01 4.91190E-01 1.24687E-01 7.22105E-02 9.25867E-02 2.03885E-01
 -1      1981 1.45708E-02 6.53428E-02 1.18632E-01 7.48893E-02-2.18698E-02-9.29694E-02
 -1      1982-5.21746E+02 1.90967E+02 7.75829E+01-2.64201E+01-1.75357E+01-2.82559E+01
 -1      1983-3.30589E+02-4.76205E+01-1.88436E+01-1.58194E+01 2.15147E+01 3.79777E+00
 -1      1984-4.16268E+02-6.94242E+01-3.94969E+01 9.85525E+01-2.97388E+01-7.89673E+01
 -1      1985 9.97721E+00-8.65376E+02 6.40627E+00-3.89447E+00 1.08471E+01 3.92763E+00
 -1      1986 7.71053E+01-8.72214E+02-1.21907E+01 2.00347E+01 1.42151E+01-4.60832E+00
 -1      1987 9.99428E-01-9.84477E+02-3.96743E+01 2.01057E+01 2.73566E+00-1.40789E+01
 -1      1988 1.66821E+01 7.47469E+02 2.92760E+00-2.09066E+00 8.54264E+00 1.12206E+01
 -1      1989 4.73657E+01 6.13347E+02 1.51970E+01-5.95582E+00-4.69499E+00-1.17654E+01
 -1      1990-2.23970E+01 2.19190E+01 2.08820E+01 1.71262E+01 5.41156E+00-2.05958E+01
 -1      1991 1.67781E+01 2.95082E+01 1.72121E+01 1.64926E+01 1.68724E+01 2.72616E+01
 -1      1992-2.37019E+03-9.65999E+00 1.56555E+01-5.61024E+01 1.30306E+01-4.38776E+01
 -1      1993-1.51344E+03-3.27300E+00 9.82107E+00-5.67329E+01-2.65759E+01 5.15196E+01
 -1      1994-4.22701E+03-5.35428E+01 2.25797E+01-1.61519E+02 3.63131E+01 2.03180E+02
 -1      1995-4.12516E+03-2.40321E+01-3.69968E+01-2.28363E+02 2.63255E+01 2.81570E+02
 -1      1996-2.95971E+03-8.16687E+01 1.13608E+02-2.09365E+02-1.90003E+01-3.40038E+00
 -1      1997-1.58029E+00-2.45214E+02-1.34324E+01 1.92571E+00 1.45523E+01 3.66524E+00
 -1      1998-1.50696E+01-2.51193E+02-8.44541E+01 5.85530E+01-7.72823E+01-8.96797E+00
 -1      1999 3.49879E+02 2.14342E+02 8.69027E+01 7.79190E+01 9.36709E+01-6.82331E+01
 -1      2000 1.84764E+02 6.50798E+01 1.82166E+01-2.03602E+01 1.20298E+01 1.70284E+01
 -1      2001-1.62802E+03 1.81108E+01 2.63131E+00-3.52701E+00-2.17749E+00 1.96753E+01
 -1      2002-1.56614E+03-5.34778E+01-1.74091E+01 1.68663E+01-3.07347E-01-1.09758E+00
 -1      2003-6.98864E+02 1.95480E+01-1.54779E+01 3.84431E+01-1.54271E-01-2.41355E+01
 -1      2004-9.59244E+02 1.51236E+01-1.12284E+01 1.02790E+02-4.78509E+01 7.19619E+00
 -1      2005 6.27078E+00 6.70428E+01 6.75446E+00 1.41258E+02 1.19348E+02 1.10742E+02
 -1      2006-7.90879E+02-2.65204E+02-1.20463E+02 5.34649E+01 9.19892E+01 9.54008E+01
 -1      2007 2.26180E+01-3.07775E+02 1.16098E+01-1.53402E+02-7.06525E+01 2.50489E+01
 -1      2008-1.90343E+03-2.70179E+02-5.54534E+00-8.93305E+01-1.31800E+01 6.83934E+01
 -1      2009 2.18403E+03 1.00820E+02-1.30007E+02 1.66876E+02-2.11850E+01 1.93952E+02
 -1      2010 2.07245E+03-2.77699E+00-1.12764E+02 4.65456E+00 4.80188E+01-1.79403E+02
 -1      2011 2.31050E+03 3.24212E+02 8.28096E+01 1.11495E+02-4.15711E+01-3.00377E+02
 -1      2012-3.20546E+03 2.70290E+03 7.47893E+01 1.20098E+03-7.92213E+02 3.95162E+02
 -1      2013-9.24930E+02-1.28532E+02-3.04699E+01 1.76804E+02 5.62034E+01 1.95509E+02
 -1      2014 9.58930E+00 1.50616E+02 2.01805E+01 3.24650E-01-2.55696E+01 3.47234E+00
 -1      2015-4.94728E+02 4.45996E+01 1.53011E+02 2.47497E+02 4.72097E+01-1.35659E+02
 -1      2016-3.51537E+01 1.61538E+02 2.37093E+02-3.80230E+01 2.20068E+01-8.15063E+01
 -1      2017 1.99119E+02-3.81024E+02 5.96216E-01-2.38271E+02-1.05412E+01-1.70453E+01
 -1      2018-1.28909E+01 2.82386E+02 8.37796E+00 3.98213E+01-3.19530E+01 1.24600E-01
 -1      2019 6.61628E+00 4.27413E+02 2.41111E+00 7.21193E+01-2.65445E+01-3.24240E+00
 -1      2020-6.49773E+00 2.95626E+02-9.14781E+00-1.75842E+00 1.10965E+01-1.80764E+00
 -1      2021 1.95608E+03 6.69582E+01-5.06270E+01 4.62801E+01 1.60762E+01-9.12045E+00
 -1      2022 1.76774E+03 5.33286E+01-1.36822E+01-7.81279E+01-1.84339E+01 1.39309E+02
 -1      2023 1.67145E+03 8.72000E+00-8.28603E+01-1.81618E+02-5.06108E+01 2.63301E+02
 -1      2024-2.71657E+03 4.70513E+00-8.46958E+00-7.92014E+01-8.72786E+00-2.13242E+01
 -1      2025-2.69742E+03 3.27747E+01-4.51567E+00-5.61793E+01-1.77334E+01 4.51393E+01
 -1      2026-3.76670E+03 8.28682E+01 3.78994E+01-4.51897E+01-2.76700E+01-2.03600E+01
 -1      2027-1.25264E+03 4.00033E+01 4.97760E+00-4.13079E+01 1.03557E+01 1.82287E+01
 -1      2028-2.35297E+03-7.66131E+00 5.58021E+00-4.19822E+01 2.10495E+00-5.32841E+01
 -1      2029 1.35130E+03 2.83712E+01 4.89016E+00-5.59472E+01 1.12362E+01-3.15409E+01
 -1      2030-7.54020E+01-3.25549E+00-4.01289E+00-6.16715E+01 1.20779E+01-4.26014E+01
 -1      2031 1.76277E+02 1.06634E+00 3.46370E+00-7.29343E+01 1.48545E+00 3.76216E+01
 -1      2032-1.51220E+02 1.65700E+02 5.80578E+01 3.36470E+01 7.60017E+01-1.64757E+01
 -1      2033-5.66220E+01 2.49986E+01 1.81045E+01 1.10225E+02 6.86158E+01 1.19984E+02
 -1      2034-4.32908E+01-4.09121E+01-3.09361E+01 4.51641E+01-7.65178E+01-1.27381E+02
 -1      2035 1.69207E+02 2.10869E+02 9.53536E+01 4.42221E+01-8.68662E+01 4.14332E+01
 -1      2036 1.21648E+03-1.29717E+01 3.15928E+00-3.66149E+01 1.89091E+00-2.66163E+01
 -1      2037-5.44420E+02-2.59645E+01-5.60358E+01-4.34006E+00 2.66774E+01 7.14031E-01
 -1      2038-7.65069E-04-4.62415E-03 2.74482E-03-5.38170E-04-2.35169E-03-2.63192E-04
 -1      2039 1.54945E+02 7.32120E+00 1.13187E+01-6.18389E+01-8.46371E+00 4.17370E+01
 -1      2040 3.16030E+02 2.67333E+01-1.80548E+01 4.83249E+01-3.29740E+01 9.96948E+00
 -1      2041 2.80934E+03 7.66851E+00 8.57564E+02-2.30923E+03 1.23231E-01 6.55087E+02
 -1      2042 8.99408E+02-7.58024E+01 1.11104E+02-2.14921E+02-3.45157E+01 1.17489E+02
 -1      2043-3.69878E+03-4.82399E+01-2.51340E+01-2.81747E+01 3.18450E+01-1.81748E+01
 -1      2044-3.70920E+03 7.25258E+01 3.69266E+01-8.24160E+00-4.90659E+00-3.68274E-01
 -1      2045 1.49961E+03-2.84138E+01-1.89507E+02-3.71775E+02-1.07983E+02-3.55224E+02
 -1      2046-3.14133E+02 3.74599E+02 3.22293E+01-4.02853E+02 1.37070E+00-6.32466E-01
 -1      2047 2.33601E+03-1.45557E+03 1.49200E+02-1.19491E+03-2.82511E+02-1.82114E+02
 -1      2048-2.37679E+03-2.38424E+01-7.10292E+00-5.38151E+01 5.43991E+00-2.81142E+00
 -1      2049-5.88446E+00 1.74272E+01-9.84802E+00-6.08097E+00-4.42863E+00-1.62337E+00
 -1      2050-1.36113E+03-5.18717E+01-2.57199E+01 1.09411E+01-4.04222E+00-6.27723E+00
 -1      2051-1.40544E+03-7.76583E+00 2.83637E+00-4.32538E+01 8.44335E-01-2.51711E+01
 -1      2052-1.62944E+03 3.53710E+01 1.38700E+01-2.81788E+01 4.16864E+01-3.65592E+01
 -1      2053-1.51472E+03-5.56163E+00-1.47504E+00-2.84979E+01 9.61388E+00-2.77961E+01
 -1      2054-1.29510E+03 1.66268E+02 2.37908E+01 4.74713E+01-3.68786E-01 8.54024E+00
 -1      2055 4.20944E+00-7.87650E+02 4.17161E+00 4.12457E+01 2.39387E+01-9.10456E+00
 -1      2056 2.81459E+01-8.69672E+02-9.72329E+00 3.36002E+01-3.14408E+01-2.84080E-01
 -1      2057 1.15120E+01-7.60777E+02 2.22053E+01-3.24215E+00 7.86713E-01-5.25699E+00
 -1      2058-3.99775E+03 5.20859E+01 1.66166E+01 5.39912E+00 5.34649E+00-1.52304E+00
 -1      2059-4.50158E+03 5.52304E+00 1.36224E+02 9.30735E+00 4.75398E+01 1.14727E+02
 -1      2060 2.01590E+03 2.91103E+02 5.28720E+01-5.61955E+01-6.91924E+01 2.26013E+02
 -1      2061 8.99209E+02 1.66625E+01 7.48027E+01-6.65913E+01-6.44504E+00-4.01468E+01
 -1      2062-5.52653E+01-4.25760E-01 2.19651E+00-6.19162E+01 1.12491E+01-4.97042E+01
 -1      2063 9.72436E+02 5.57629E+01 1.02393E+01-5.93024E+01 1.17223E+01-3.49267E+01
 -1      2064 1.13853E+03 3.71499E+01 5.52768E+01 3.14738E+01 8.54940E+00 5.87556E-01
 -1      2065 9.10449E+02-8.37353E+01-4.20726E+01 6.60206E+01-4.72782E+01-6.59053E+01
 -1      2066 5.14554E+01-4.58624E+01 2.53049E+00 3.00888E+01-4.91390E+00 5.70266E-01
 -1      2067-1.37425E+01-4.23526E+02-2.61138E+00 7.15866E+01-2.43972E+01-7.18764E+00
 -1      2068 2.68129E+02-1.66493E+02-1.63371E+01-2.21206E+02 1.74421E+01-3.83674E+01
 -1      2069-1.66604E+03-1.16139E+02-2.07736E+01 3.77032E+01 1.47482E+01-2.23519E+01
 -1      2070-1.73245E+03-2.61593E+01 6.69634E+01-1.77818E+01 5.73654E+00-4.20645E+01
 -1      2071-8.85119E+02 4.85926E+01 8.09667E+01 6.06625E+01-1.28562E+01 1.03117E+02
 -1      2072-1.09396E+01 1.63709E+02-1.04465E+01-7.14736E-02 2.63337E+00 4.70413E+00
 -1      2073-7.30008E-01 4.12212E+00 7.23984E-04-4.17746E-01 4.07422E-01-1.86023E-02
 -1      2074 3.52987E-01 1.89131E+00-5.31826E-01 6.11842E-02-6.04560E-01 3.83701E-01
 -1      2075-5.72412E-01 1.27736E+00-1.18853E+00 3.52552E-01 3.88510E-01-1.56346E-01
 -1      2076-4.50811E+03-6.47581E+00 1.47087E+02-1.01068E+02-7.16304E+01-1.35611E+02
 -1      2077-4.17090E+03-2.92469E+01 9.86407E+01-1.84743E+02-2.49413E+01-1.54399E+02
 -1      2078-5.33955E+03 1.14135E+03-2.63775E+02-1.08869E+03-7.28832E+01-2.11247E+02
 -1      2079 7.71370E+00 4.54495E+00-8.43581E-01 6.52873E+00 2.94777E-01-7.61531E-01
 -1      2080 3.01200E-01 3.45856E-01 1.62542E-01 2.11920E-01 7.54069E-02-2.36121E-01
 -1      2081 1.51436E-03 9.13984E-03 1.28946E-02 9.16873E-04 1.50212E-02 3.23267E-04
 -1      2082-9.19142E+01 1.87621E+01-3.48425E+00 7.07370E+01-6.21921E+01 3.66553E+01
 -1      2083 2.34499E+02-1.02999E+01 6.06479E+00-6.82160E+01-1.07259E+00-9.91845E+00
 -1      2084-1.33864E+03-1.66025E+02 7.24117E+01 3.41572E+01 2.35017E+01 5.39805E+01
 -1      2085-2.49945E+03-2.02376E+02 1.53236E+01-1.48288E+02 2.54249E+01-3.50694E+01
 -1      2086-9.20300E+00-3.33517E+01-4.06458E+00 2.86979E+01 4.15641E+01-6.25205E+01
 -1      2087-4.19694E+03 2.58968E+03 4.62408E+01 1.36903E+03 3.47399E+02-2.80124E+01
 -1      2088-1.20763E-03 1.04801E-03 3.07395E-03 2.07946E-05 7.47201E-03 3.82262E-04
 -1      2089 1.18049E+00 3.16513E+00 4.45549E-01 1.51310E+00 4.50650E-01-2.35072E-02
 -1      2090 1.97389E+01 3.78256E+01 2.11092E+01-9.48100E+00 3.14404E+00-3.20940E+00
 -1      2091 5.86490E+00 1.91039E+01-3.82202E+00-4.12830E+00 1.86331E+00 2.23504E+00
 -1      2092-6.54366E-01 1.47057E+01 2.83294E+00-1.44642E+00 2.13203E+00-1.36172E+00
 -1      2093-8.54761E+02 1.06371E+02 3.80351E+01 3.29111E+01 4.82704E+00 1.99814E+01
 -1      2094-2.65997E+03-3.81537E+01-7.39167E+00-7.35319E+01 6.99340E+00 1.58868E+00
 -1      2095-8.62849E+02 5.40826E+00 2.18270E+01-2.84624E+01-9.50880E+00 5.06360E+00
 -1      2096-2.32124E+03-7.21122E+00-1.12139E+01-6.18883E+01-8.54439E+00-2.81122E+01
 -1      2097-3.55948E+03 9.42029E+01 5.29059E+01-4.80074E+01-3.29130E+01-3.01111E+01
 -1      2098-2.46876E+03-3.81396E+02-9.31292E+01-6.13268E+02-8.49317E+01 2.32673E+02
 -1      2099-4.72543E+03 8.12089E+02-2.86564E+02-1.81115E+03 3.06828E+02 1.49891E+02
 -1      2100-4.34846E+03-4.64529E+02-2.63124E+02-5.79253E+02-3.96977E+01 3.69010E+02
 -1      2101 2.75964E+00 1.46218E+02-7.55603E+00 5.70766E+00 3.01554E+00 1.26576E+01
 -1      2102-2.70535E+03 1.18792E+01 2.65975E-01-6.74773E+01-1.65751E+01 4.22166E+01
 -1      2103-7.57353E+02 1.22805E+02 4.28565E+02-1.23825E+03-1.62429E+02 2.89285E+01
 -1      2104-7.10454E+00-2.29717E+00-8.41922E+00 3.98220E+00 2.89995E+00-4.25098E+00
 -1      2105 1.62591E+02 4.70007E+01-1.20503E+01 6.79055E+01-2.28307E+01 1.85494E+01
 -1      2106-1.13429E+01-7.71215E+00-2.21982E+01 3.76480E+00-4.31336E+00-3.22870E+00
 -1      2107-2.32168E+03-2.34765E+01 2.22187E+00-7.69820E+01 7.48518E+00-4.57766E+01
 -1      2108-1.01720E+02 1.66448E+02 7.94954E+01 5.74097E+00-2.09330E+01-4.72369E+00
 -1      2109-3.02230E+00-1.77860E+00-2.31752E+00 6.71730E-01-2.75446E+00 1.23260E+00
 -1      2110-9.94618E-01 8.07155E-01-4.18298E+00 1.38267E+01-6.45336E+00 3.10942E+00
 -1      2111 4.10300E+01-6.77585E+01-1.97461E+01 1.04596E+02-1.95459E+00 3.25141E+00
 -1      2112 5.03774E+01-7.42634E+01 1.65817E+01 9.55478E+01-1.31554E+01 5.91704E+00
 -1      2113-3.41114E+03-1.23357E+02 5.48316E+01-2.24911E+02 8.89997E+00-8.40371E+01
 -1      2114 3.23111E+00-7.64639E+02 3.22418E+00 4.82020E+01-3.01992E+01 4.59216E+00
 -1      2115 1.38601E+03 4.64749E+00 3.92334E+00 9.59359E+00 8.14505E-01 4.76682E+00
 -1      2116 1.32476E+03-3.76817E+01-7.80712E+00-5.31285E+01-6.12141E+00 2.82762E+01
 -1      2117 1.45234E+03-2.53892E+01-1.51326E+01-4.95120E+01-1.17004E+01 3.70147E+01
 -1      2118-2.77765E+00 9.21872E-01-7.94349E+00 1.09221E+01 8.79087E+00-8.86565E+00
 -1      2119 3.62843E+02 6.99842E+01-2.90512E+00 1.02329E+02 1.79524E+01-1.07740E+01
 -1      2120-1.53720E+02 2.59410E+01 1.37850E+00-7.32356E+01-1.26618E+01 1.15352E+01
 -1      2121 7.62035E-01 1.87964E+01-3.84001E+00-2.12114E+01 3.13037E+00-2.72299E-01
 -1      2122 1.29384E+03-2.54685E+01-1.40356E+01-2.41404E+00-2.71078E+00-6.07059E+00
 -1      2123 5.48846E+00 1.94332E+00-5.75844E-01 5.67183E+00-1.74446E+00 5.23144E-01
 -1      2124 4.35608E+02-1.57253E+02-5.42616E+01 5.69608E+01-8.79980E+01-3.75532E+01
 -1      2125 4.10270E+02-1.15846E+01 1.94350E+00 1.61959E+01-1.18592E+01-8.35092E+00
 -1      2126-2.48131E+02-7.63005E+01-1.74904E+01 1.78667E+00-3.74653E+01-7.00182E+00
 -1      2127 2.84770E+01-5.57179E+01 4.45513E+00 8.40846E+01 1.02341E+01 1.72676E+00
 -1      2128 4.64533E+01 2.07277E+01 2.58875E+01-1.66568E+01 2.88061E+00-6.66172E+00
 -1      2129 3.55534E+01 8.97628E+02 2.70929E+01 8.62594E+01-3.48552E+01-2.13617E+01
 -1      2130 2.39333E+01 8.81027E+01 1.34233E+00 7.47735E+01-1.33324E+00-6.74248E+00
 -1      2131-4.25051E+03-2.44566E+01 2.85243E+01-9.29600E+01 1.38783E+01 1.17555E+02
 -1      2132-3.33732E+03-1.08644E+02-3.65184E+01-1.52572E+02 2.84087E+00 7.14485E+01
 -1      2133-1.72515E+01-1.12496E+01-8.05677E+00 2.35306E+00 2.88041E+01-2.51530E+01
 -1      2134 9.47937E+01 6.29192E+00-4.16478E+00 8.18580E+00-5.30138E+00 1.45634E+01
 -1      2135-7.95029E+01 3.20348E+01 2.20694E+00 1.78820E+01 3.38273E+00 2.54301E+01
 -1      2136 9.05788E+01-9.71278E+01-1.60807E+01 9.21957E+01 4.97690E+01-3.01155E+01
 -1      2137-1.27562E+03-2.72462E+02-6.84045E+01 1.03401E+02 3.25634E+01 8.85960E+01
 -1      2138-2.16584E+03-1.96059E+02-5.20904E+01 2.09989E+02-6.10168E+00-2.11975E+02
 -1      2139-8.32323E+01-1.26586E+02 3.24970E+01-2.18441E+01-1.31328E+01-2.55776E+01
 -1      2140-4.84738E+03-4.26295E+02-2.20800E+02 1.63677E+02 1.23146E-01 3.40731E+01
 -1      2141-4.85195E+03-2.60414E+02 1.50584E+02-2.12806E+02-5.71232E+00-1.27715E+00
 -1      2142-6.02817E-03-1.36432E-02 8.29584E-03-1.75196E-03 5.61286E-03-3.85707E-04
 -1      2143-3.95994E+02-1.29687E+02 1.41580E+01 9.14279E+01-2.87415E+01-1.30869E+01
 -1      2144-1.25573E+03-3.05980E+02-3.95802E+01 1.14955E+02-1.00273E+01-1.15593E+02
 -1      2145 1.70011E+03 6.92690E+01-1.18598E+01-1.98699E+02-1.09379E+01-2.40353E+02
 -1      2146-1.38104E+02 1.06760E+02 3.44922E+00 9.47356E+01 2.36011E-01 2.32867E+01
 -1      2147-5.98390E+01-5.94317E+01 1.03639E+01 1.14115E+02 3.73741E+01 2.06483E+01
 -1      2148 3.27362E+02 1.17650E+02-4.24261E+01-4.93661E+02-8.13805E+01-1.38104E+02
 -1      2149-2.14364E+03-1.34310E+02-3.07474E+01-6.85574E+01 3.06489E-01-4.84905E+01
 -1      2150 4.09525E+01 1.43770E+01 3.23559E+01 1.23346E+01 4.37052E+00-2.16152E+00
 -1      2151-6.16293E+01-1.44798E+01-3.59039E+00 5.70373E+01 1.98948E+00-2.02215E+01
 -1      2152-5.04394E+01 6.72686E-03-8.51255E-01-4.48417E+00-4.81579E+01-8.50160E+01
 -1      2153 1.07250E+00 2.54351E+00 3.74442E-01-1.34162E+00 7.41370E-01-1.74907E-01
 -1      2154 1.66691E+00 3.20128E+00-7.75618E-01 1.91574E+00-8.90038E-01-5.09287E-01
 -1      2155 3.56097E+00-4.50500E+02-5.78158E+00 9.95494E-01 8.71937E+00 5.38288E+00
 -1      2156 9.77172E+00-4.00620E+02-3.86001E+00 7.63514E+01 4.28982E+01-3.24192E+00
 -1      2157 1.23222E+01-1.71398E+02 7.90772E+00-6.18858E+00 1.89142E+00 4.36498E+00
 -1      2158 8.78413E+02 4.01637E+01 1.27609E+02 3.70997E+00-4.40898E+00-1.97273E+01
 -1      2159 7.86019E+02-2.43838E+01 2.39209E+01 3.36985E+00-1.90220E+01-9.13212E+00
 -1      2160 2.37665E+03-3.50315E+02 2.77308E+02-1.67732E+02 1.08988E+02 2.60420E+02
 -1      2161 9.29147E+00-5.08773E+02-8.15348E+00 2.79424E+01 2.39856E+01-3.67905E+00
 -1      2162 9.70769E+01-9.75194E+01-1.80148E+00 1.01612E+01-3.85759E+01-1.04211E+00
 -1      2163-2.68427E+03 1.39269E+01 5.76506E+00-4.59367E+01 6.62810E+00-7.18934E+00
 -1      2164-1.31892E+03-1.80963E+01-8.93860E+00-3.02203E+01 2.84593E+00-2.59215E+01
 -1      2165-3.74520E+03-1.61740E+01-2.73153E+00-3.87460E+01-7.38996E+00 2.04956E+01
 -1      2166-2.34032E+03-1.41986E+01 6.57114E-01-4.81220E+01 2.14701E+00 1.69618E+00
 -1      2167 5.21935E-01 4.93599E+00 2.45907E-02 2.67347E-01 3.66373E-01 5.96915E-02
 -1      2168 1.43585E+02-1.49425E+02-6.79991E+01-4.28850E-01 4.47712E+00-4.83846E-01
 -1      2169 2.50682E+02-1.17036E+02-4.10912E+01 1.19947E+02 7.46840E+01 6.78264E+01
 -1      2170-7.51544E+02 2.61703E+01-2.10914E+01-1.55794E+02 1.35751E+01 1.10857E+02
 -1      2171 6.15605E+02 1.97906E+01-3.61759E+01 4.22731E+01 6.69161E+01 6.73187E+01
 -1      2172-1.42757E+02 1.84002E+00-1.16456E+01 1.36411E+02-5.13038E+01-5.61769E+01
 -1      2173 7.47985E+02 2.00783E+02 5.00987E+01 1.60461E+02 2.95718E+00-4.48194E+01
 -1      2174 8.67553E+00 2.38715E+00 8.63196E-01 7.04769E+00 2.37182E+00 1.00989E+00
 -1      2175-4.71803E+03 3.60311E+02-8.54140E+02 5.72817E+02 1.33876E+02-5.99511E+01
 -1      2176-3.10671E+03-1.35611E+03-6.61761E+02-3.56230E+03-9.59171E+01-5.70084E+02
 -1      2177-3.47919E+03 2.78080E+03 4.81461E+02-2.00643E+03-6.09525E+01 4.28418E+02
 -1      2178-1.22762E+01-6.46972E+01 4.02534E+00 3.24257E+01 4.37926E+01 7.05476E+00
 -1      2179-3.41867E+03-2.44513E+02-2.24666E+02-9.20945E+01 5.75525E+01 3.27699E+02
 -1      2180-2.01526E+01-4.33558E+01-1.23951E+01-1.20984E+01 1.92580E+01 1.34514E+01
 -1      2181 6.80734E+01 6.97263E+01 2.74644E+01 2.72745E+00-1.13179E+01 7.40036E+00
 -1      2182 9.36891E+01 1.64457E+02 6.39743E+01 1.03041E+01 5.43201E+01 6.30834E+00
 -1      2183-5.78689E+03 7.14459E+02-4.07473E+02 2.14704E+02 4.55153E+01 6.51255E+01
 -1      2184 1.01761E+03 1.83684E+03 9.08406E+02 6.83850E+02-3.37534E+01 1.88981E+02
 -1      2185 4.52958E+01-6.49581E+02-1.90233E+02-2.29284E+02-5.78258E+01 2.06596E+01
 -1      2186-8.13370E+02-2.83322E+01-6.90742E+01 1.49172E+01 1.94909E+01-9.96738E+00
 -1      2187 4.06474E+00 8.52462E+02-3.80994E+00 6.03472E+00-2.72103E+00-1.60051E+01
 -1      2188-1.56217E+01 8.97910E+02 4.35858E+01 2.34531E+00-3.48722E+01 7.53062E+00
 -1      2189 7.66809E-01-2.54136E-03 2.95404E-01 2.54389E-01 5.25589E-01 4.24625E-02
 -1      2190 2.38557E+00 1.22080E+00 5.40382E-01 2.00467E+00 1.43876E+00 1.24999E-01
 -1      2191-6.27760E+00-1.22565E-01-1.02779E+00-3.09382E+00-9.89493E-01 5.76031E-01
 -1      2192-4.49548E+03 2.30274E+03 9.45947E+01-6.37784E+02 1.96752E+02-3.54917E+02
 -1      2193-5.88388E+03 2.32325E+02-5.43456E+02 3.80471E+02-3.44799E+01-1.22809E+01
 -1      2194-3.70156E+03-3.17219E+01-1.50914E+01 1.42622E+01-2.39992E-02 7.50134E+00
 -1      2195-2.53731E+03-3.25733E+02-2.82136E+02 3.81474E+02 1.11637E+02-8.13938E+02
 -1      2196-2.95735E+03 1.00972E+02-2.10089E+02 2.95556E+01-3.25878E+00-1.05147E+02
 -1      2197-3.30334E+03-1.23125E+02-1.78767E+02-3.20075E+01-1.45675E+01-1.99606E+02
 -1      2198-1.70958E+03-2.19562E+02 7.99795E+01 7.19842E+02-2.18002E+01 8.04701E+00
 -1      2199-2.88045E+03-2.05981E+02-1.96685E+02 1.02098E+02-2.15738E+02 9.26109E+02
 -1      2200-2.45300E+03-4.44934E+01-1.08719E+02-2.02898E+02 8.08217E+01-4.17973E+01
 -1      2201 4.45794E+01 1.73045E+02 1.20691E+01-1.84725E+02-1.37848E+01-5.75513E+00
 -1      2202-2.27902E+00-1.70456E+00-1.15863E+00 1.46110E-01-1.65743E+00-1.53932E+00
 -1      2203-2.24171E+00-1.27488E+00-1.98858E+00 4.18691E-01-1.39036E+00-1.66200E-01
 -1      2204-1.53990E+00-1.62963E+00 1.05843E+01-2.10903E+00-4.41408E+00-4.25868E+00
 -1      2205 1.91668E+00 2.12558E+01 7.58885E-02 5.39850E+00-1.33473E+01-1.92586E+00
 -1      2206 1.27382E+03 4.83387E+02 5.16692E+02-8.06259E+02 1.82926E+02 2.61994E+02
 -1      2207-1.61566E+03-1.89773E+03-6.65068E+02-3.05014E+03-1.34451E+01 3.19609E+02
 -1      2208-2.88591E+01 8.21996E+02 7.52334E+01-2.35170E+01-1.14504E+01 5.04896E+00
 -1      2209-7.52388E+02 1.80182E+02 1.74974E+01-8.71364E+02-1.11453E+01 4.17664E+02
 -1      2210-1.64209E+03-5.60220E+02-3.62185E+02-1.86738E+02 7.16780E+01 9.59716E+01
 -1      2211 2.41153E+03 4.16555E+02 3.41435E+02 2.71980E+02 2.16782E+01-1.42384E+01
 -1      2212 1.47571E+03-1.07956E+03 1.46953E+02-8.91892E+02-1.14691E+02-1.72245E+02
 -1      2213 2.04146E+03 6.17880E+01 3.84928E+02 3.20839E+02 7.22174E+01 1.96262E+02
 -1      2214-2.22664E+03-4.28198E+01 1.66639E+02-2.15371E+01-1.81704E+02-8.06315E+01
 -1      2215-2.19372E+03 5.47629E+01 1.00747E+02-2.10377E+01-5.02311E+01-4.73870E+01
 -1      2216-1.98881E+03-3.88346E+01 1.20152E+02-3.84461E+01 6.86839E+01 3.60009E+01
 -1      2217-2.19646E+03 1.91629E+02 1.53584E+02 4.36100E-01-1.51551E+02 5.79037E+01
 -1      2218-2.43170E+03-4.20236E+01-2.54256E+02 7.95110E+01 2.64129E+02-8.22449E+01
 -1      2219-1.41456E+01 7.83525E+01 3.84751E-01 5.53020E+01 3.52954E+00-5.13869E+00
 -1      2220-6.59432E+01-4.39170E+01 6.24568E+01-1.08223E+02-4.57179E+01 2.87266E+01
 -1      2221 2.26868E+01-6.62259E+02 3.14973E+00 2.81448E+01 2.84812E+01-5.16326E+00
 -1      2222-1.27333E+03-3.48149E+03-9.99097E+02-3.35073E+03-8.84632E+01 1.48624E+02
 -1      2223 7.32181E+02-5.84597E+01 7.18424E+01-1.58884E+02-2.16974E+01-1.29549E+02
 -1      2224 3.28235E+00 4.21195E+02 2.87000E+01 1.29196E+01 1.37690E+00 7.18695E+00
 -1      2225-2.36551E+03-1.33212E+02-2.13986E+02-3.17887E+02 4.69281E+01 4.82995E+01
 -1      2226-2.09819E+03-1.79345E+01 1.36913E+02-2.27559E+02 3.02933E+01 1.03653E+02
 -1      2227-1.68064E+03 7.22199E+01 5.59719E+01-8.82029E+01-7.64350E+01 8.97709E+01
 -1      2228-1.20351E+03-3.12554E+03-1.01962E+03-3.17838E+03-7.23522E+01-1.00390E+02
 -1      2229-4.84822E+03-1.18792E+03-1.30463E+03-1.99563E+03-1.05172E+01-2.48009E+02
 -1      2230-4.65497E+03-4.07456E+02-4.22076E+02-2.98628E+03 2.99659E+01 9.21249E+01
 -1      2231-3.37988E-01 1.51381E+00-3.92526E-01-6.00680E-01-3.28676E-01-1.31601E-01
 -1      2232-1.96342E+00 7.58616E-01-3.95316E-01 2.16226E-01-6.14510E-01 5.47666E-02
 -1      2233 1.07003E+02 4.56880E+02 7.96726E-01 3.68812E+01-5.84868E+00-4.02106E+01
 -1      2234-3.80761E+03 1.33503E+01 1.29120E+01-5.69983E+01-3.38678E+00 3.76801E+01
 -1      2235-3.72783E-01 3.58211E+00-1.16805E-01 4.21019E-01-8.09663E-02-7.04368E-02
 -1      2236-2.86721E+03-1.77424E+02 9.52986E+01-3.01680E+02-7.76627E+01-1.63313E+02
 -1      2237-2.17011E+03-4.43009E+02-4.44185E+02-1.97634E+02-1.12131E+02 4.37145E+00
 -1      2238-1.64783E+03-1.43784E+02-5.09426E+02 6.26715E+00-1.89654E+01-4.79857E+01
 -1      2239-1.59566E+02-1.77574E+01-2.05403E+01-1.01309E+01 7.15883E-02-4.21819E+01
 -1      2240-1.46549E+03-4.58636E+02-2.03848E+02-9.53070E+01-8.87343E+01-1.22635E+02
 -1      2241-1.69981E+01 6.34209E+00-7.69633E+00-1.46182E+01-6.56810E-01-8.77741E-02
 -1      2242 1.00890E+03-1.11554E+01 2.09205E+00 5.07152E+00-1.26931E+00 5.39767E-01
 -1      2243-3.25000E+03-2.09722E+01 3.78165E+01-7.36449E+01-6.75133E+00-2.08952E+01
 -1      2244-1.61603E+03-1.77773E+02-1.55779E+02 1.49496E+02 1.30501E+02 1.39106E+02
 -1      2245-4.33214E+03-3.33418E+01 9.57888E+01 2.63296E+01 4.81045E+00 2.14706E+01
 -1      2246-2.31999E+03-2.16435E+01-1.07668E+01-5.42238E+01 2.78709E+00 1.29475E+01
 -1      2247-3.79653E+03 6.39488E+01 2.77564E+01 4.98192E+00 7.51273E-01 3.29648E+00
 -1      2248-3.64916E+03 2.87411E+00 8.33485E-01-2.83770E+01 3.35152E+00 2.54806E+01
 -1      2249-3.64772E-03-3.87591E-02 4.90917E-03-3.91842E-03-5.40282E-03-2.30122E-03
 -1      2250-2.61511E+03-1.99676E+01-8.94895E+00-5.24549E+01-1.54623E+00 1.97516E-01
 -1      2251-1.45850E-02-4.35143E-02-9.59575E-03-4.49248E-03-2.05960E-04-2.41768E-03
 -1      2252-1.12815E+02-1.92135E+01-2.32539E+00 2.62211E+01 6.16174E+00 2.60227E+01
 -1      2253-1.00667E+02-1.34663E+02-4.44621E+01 3.73896E+01-5.66178E+01-4.50647E+01
 -1      2254-1.05167E+03-2.06960E+01-1.19667E+01-3.68877E+01 4.29352E+00-2.95362E+01
 -1      2255-3.81037E+01 5.01963E+01 3.43344E+00 9.53237E+01 5.89338E+00 5.28675E-01
 -1      2256-4.89376E-01 1.08620E+01-3.00494E+00-2.59803E+00-9.71211E-01-1.90375E+00
 -1      2257-1.54306E-01 1.78673E-01 1.90736E-01-2.82974E+00-5.54584E-01 7.56981E-01
 -1      2258-2.02378E+03 1.68969E+01 2.19603E+02 2.35426E+02 4.66723E+01-8.67669E+01
 -1      2259-2.44080E+03-3.46339E+01-1.32997E+02-1.70915E+02-1.78885E+01 2.37325E+02
 -1      2260-2.26273E+03-2.71061E+02 9.25446E+00-7.83082E+01 2.14046E+02 2.10010E+01
 -1      2261-2.17719E+03-3.43501E+02 3.88278E+01-9.32375E+01 1.85839E+02 8.19526E+01
 -1      2262-2.92682E+03-2.81792E+02-3.98686E+02-2.98554E+02-1.64053E+02 2.85215E+02
 -1      2263-3.23854E+03 6.76046E+02-1.30162E+02-1.67164E+03 1.00737E+02-2.00478E+02
 -1      2264-1.45531E+03 3.37515E+03 1.11916E+03-2.80874E+03 1.40164E+01 1.93912E+01
 -1      2265-4.98538E+03-2.77837E+02-6.06580E+02-6.45675E+01-7.72274E+01 3.61119E+01
 -1      2266 6.22320E+00-4.94061E+01-6.04995E+00 1.67958E+01 4.37116E+01-2.04646E+01
 -1      2267 6.12324E+01-8.84184E+00-6.56429E+00 3.21864E+00 7.92854E+00 1.28434E+01
 -1      2268-4.28151E-02-1.73567E-01-2.55767E-01-3.67327E-02 5.59898E-02 1.06725E-01
 -1      2269 2.61700E-01 1.32583E-01-3.91826E-01 1.03964E-01-1.81872E-01 1.09223E-02
 -1      2270 8.76994E-02-2.03297E-01-6.46290E-01-3.58358E-01-2.79031E-01-2.40429E-01
 -1      2271 3.00704E-01 7.99994E-02 1.66575E-01 1.73605E-02 2.42011E-01 2.88984E-01
 -1      2272 8.70391E-01 5.42582E-01 2.36288E-01 6.05952E-03 9.97332E-03 7.77808E-01
 -1      2273 3.44279E+02-3.80749E+00 9.65950E+00-2.08794E+02 5.23191E+01-1.66159E+02
 -1      2274 1.39211E+02 2.73573E+01 1.13729E+01 4.10204E+00-1.28085E+01 3.36358E+00
 -1      2275-1.52988E+03-2.95365E+02-8.57320E+01-1.88094E+03-5.64066E+01 2.68731E+02
 -1      2276-1.19778E+03 3.86389E+03 1.17215E+03-2.89055E+03 9.09179E+00 3.20322E+01
 -1      2277 8.38828E+00 5.71027E+02 9.63869E+00 5.84297E+01-3.31774E+01 1.86478E+00
 -1      2278-3.50332E-01-2.96785E-01-4.01631E-01 1.40345E-01-5.96312E-03 1.26669E-02
 -1      2279 3.20669E-01-3.09565E-01-9.77172E-01-1.41154E-01-4.26111E-01-9.07208E-02
 -1      2280 1.55362E-01-1.55634E-01-2.62664E-01-2.03585E-01 4.86825E-03 1.63813E-02
 -1      2281-2.31109E+03-1.89904E+02 1.19194E+02-2.58856E+02-5.47888E+01 3.62753E+01
 -1      2282-2.38140E+03-5.60808E+02-4.93756E+02-2.55375E+02 1.08127E+02-1.49100E+00
 -1      2283-1.64327E+01-6.19904E+02-7.02745E+00 6.80082E+01-3.69176E+01 1.21244E+01
 -1      2284 3.36523E+01-6.51683E+02 3.22433E+00-1.36280E+01 5.73234E-01 8.84334E+00
 -1      2285-3.07561E+00 4.10860E+01 6.27741E+00 3.02199E+01 2.79640E+01 5.89191E-01
 -1      2286 2.65087E+01 9.44867E+01-2.73405E-01 7.24638E+01-8.55631E+00-8.46621E+00
 -1      2287-8.73291E+00-1.54993E+02-2.21528E-01 7.04059E+01 2.10732E+00-2.78872E-01
 -1      2288-2.13011E+01-1.18712E+02 5.41558E+00 1.42326E+01 4.69626E+00-5.68774E-01
 -1      2289-2.34259E+01 6.85630E+01-6.43933E+00 8.77846E+01-3.97394E+01-4.27456E+00
 -1      2290 6.27457E+02-2.92575E+01 8.20109E+01-4.97271E-01 2.84320E+01 8.65242E+00
 -1      2291-4.58687E+00-3.09977E+02-2.28443E+00 4.45941E+01-2.75103E+01-5.80254E-01
 -1      2292-2.53637E+03-5.34466E+01-4.41339E-01-3.13775E+02 8.99445E+00 1.63084E+02
 -1      2293 6.95548E+01-7.32879E+01-3.22870E+01-9.42943E-01 6.70353E+00 5.98500E+00
 -1      2294-1.72729E+03 2.35198E+01 7.62232E+01 1.86422E+01 3.20648E+01 3.41014E+01
 -1      2295 3.74374E-01-1.15876E-02 3.86128E-02-5.89006E-01-2.97263E-01 5.40907E-01
 -1      2296 1.72427E+02-3.37264E+00 4.07638E+00 2.10162E+01-1.31989E+01 7.80014E+00
 -1      2297 5.40712E+01 3.01282E+02 1.55419E+01-6.71852E+00-1.45788E+00-1.52484E+01
 -1      2298-3.26662E+01 3.49982E+02-1.40048E+01 5.43722E+01-3.13105E+01-6.79937E+00
 -1      2299 3.15453E-01 4.09224E+00 1.90337E-02 2.57898E-01 1.33491E-01-2.30039E-03
 -1      2300 4.51517E+02 1.56807E+02 1.65780E+02-3.14221E+02 4.27511E+01-6.63801E+01
 -1      2301-3.77382E+01-5.67500E+01 8.63339E+00-1.44708E+01 9.54402E+00-1.21825E+01
 -1      2302-3.81772E+01-4.45668E+01-6.25608E+01-1.70400E+01-1.77641E+01 7.36587E+00
 -1      2303 4.43709E+00 1.38632E+01 1.30077E+00 3.98610E+00 4.68042E+00 3.46581E+00
 -1      2304-9.08276E+00 1.51932E+01-5.54155E+00 7.76400E+00 1.32331E+01 6.50614E-01
 -1      2305 1.20908E+01 1.51123E+01 3.57392E+00-3.19601E+00-1.91897E+00-4.62421E-01
 -1      2306 1.20179E-01-7.47153E-02-4.26012E-01-3.41415E-02-1.27440E-01-4.18714E-02
 -1      2307-1.22061E-01-1.26090E-01 1.57505E-01 3.41719E-02 2.37923E-01 2.03059E-02
 -1      2308 8.57980E-03-1.16722E-01 1.96970E-01-4.39833E-02 7.79658E-02-1.62850E-02
 -1      2309-2.48008E+03-1.36360E+02-3.53415E+02-4.64962E+01 1.60609E+02 1.03988E+02
 -1      2310-2.24032E+03 4.45833E+01 1.35029E+02 1.99377E+01-2.21501E+02-1.71311E+01
 -1      2311-7.08569E-03-7.88612E-03-1.55295E-02-2.92841E-02 9.62140E-03-1.28448E-02
 -1      2312 1.33350E-02-1.29678E-02 3.45965E-02-2.65901E-02 5.43953E-03-1.03703E-02
 -1      2313-7.30387E-04-4.04047E-03 2.81771E-03 1.27514E-04-5.02254E-05-2.86468E-05
 -1      2314-4.33708E+02-1.40925E+02-2.27934E+02-8.84894E+01-8.42524E+00 4.39504E+01
 -1      2315-5.37884E+00-6.73636E+01-7.28669E+01-2.40109E+01-7.67740E+00 9.33644E+00
 -1      2316-1.03568E+01-7.64457E+00-6.41279E+00-2.38358E+00-6.81634E-01-5.51214E+00
 -1      2317-2.35806E+03-2.26503E+02 2.89185E+02-3.37456E+02 7.75686E+01-6.29793E+01
 -1      2318 1.38381E+00 5.61269E-01-3.93415E-02 9.41607E-02-1.39512E-01 6.09239E-01
 -1      2319 1.63712E-02 9.72915E-02 6.82285E-02-3.24366E-02 9.68783E-02-7.65481E-03
 -1      2320-4.39357E-03 7.61033E-02 2.18582E-01 7.02183E-03 1.76597E-01 1.79426E-02
 -1      2321 1.59978E-03-1.54634E-01 5.21876E-02 4.50173E-02-5.92605E-02 2.61504E-03
 -1      2322 6.64205E-03 7.40469E-02 1.13118E-01 2.88927E-02 1.16196E-01 3.42619E-02
 -1      2323-2.50380E+03-8.80400E+00-3.50960E+02 8.10737E+01 3.79731E+01 8.59669E+01
 -1      2324-2.38336E+03-3.07035E+01-3.41073E+02-1.02981E+01 1.71886E+02-1.30520E+02
 -1      2325 1.28462E+01-4.98231E+02-1.00984E+01 6.73327E+01 4.12592E+01-5.83008E+00
 -1      2326-3.22921E+00-4.58965E+02-6.17952E+00 9.17617E+00 9.65825E+00-5.91039E+00
 -1      2327 1.13431E+01-1.37843E+02-1.14493E+01 1.20894E+02 8.51972E+00 1.99229E+00
 -1      2328-4.87902E+01 1.83688E+02 1.11945E+01 2.72986E+00-1.59097E+01-1.28605E+00
 -1      2329 4.56516E-03-9.57019E-02 3.03398E-02-6.06125E-02-4.77853E-02-2.41939E-02
 -1      2330 1.58300E-02 8.03959E-02 5.00686E-02-1.21018E-02 7.84235E-02 1.70496E-03
 -1      2331-1.85766E-02-1.63229E-01 1.76441E-01 3.26533E-02 7.02264E-02 1.17860E-02
 -1      2332-3.24877E-03 2.86812E-02 2.00691E-01-1.03917E-01 1.66259E-01-5.52715E-02
 -1      2333-7.75359E-01-3.75002E-01-9.12663E-01-1.47947E-02 6.95598E-02-1.32515E+00
 -1      2334 1.02552E+01-3.09267E+02 1.21614E+00 1.40480E+01 1.44375E+01-3.36913E+00
 -1      2335-2.04282E+01-3.29995E+02-6.04270E+00 2.33716E+00-1.27763E+00 6.65818E-01
 -1      2336 1.50843E+01-2.23128E+02 2.78701E+00 1.08275E+02 7.74334E+00 4.16396E-01
 -1      2337-1.93400E+01 2.48103E+01 1.47379E+01 2.92109E+01 6.51695E+01 9.47617E+01
 -1      2338-4.88042E-01-4.65587E-02-5.33382E-01 5.49620E-02-1.87101E-01-5.29578E-01
 -1      2339-5.88863E+00 2.12319E+02 3.79671E+00 8.52219E+00-9.96155E+00 2.30183E+00
 -3
    1PSTEP                         3           1           1          
  100CL  101 1.000000000        2339                     0    1           1
 -4  TOSTRAIN    6    1
 -5  EXX         1    4    1    1
 -5  EYY         1    4    2    2
 -5  EZZ         1    4    3    3
 -5  EXY         1    4    1    2
 -5  EYZ         1    4    2    3
 -5  EZX         1    4    3    1
 -1         1-8.91366E-03 1.96869E-03 2.86337E-03 2.41663E-03 1.02280E-03-5.37375E-03
 -1         2 2.78780E-03-1.76573E-04-9.35087E-04 6.93595E-04 3.76017E-05 1.22923E-03
 -1         3 1.69420E-03 5.89918E-04-9.78925E-04-1.26320E-03 2.48634E-04-9.60326E-04
 -1         4-2.33734E-03-2.04394E-03 1.84520E-03-1.12560E-03 1.23059E-03 1.20832E-03
 -1         5-1.43965E-02 3.83502E-03 3.75726E-03-6.54627E-04-1.59115E-03 5.35649E-03
 -1         6 3.79924E-03-4.08491E-04-1.02936E-03-1.38839E-04 1.14377E-04-1.86907E-03
 -1         7 1.60816E-03 3.51081E-04-1.16732E-03-6.09789E-04-2.71303E-04 7.80735E-04
 -1         8-2.04089E-03-1.40957E-03 1.62433E-03-1.22858E-03-9.44117E-04-7.23880E-04
 -1         9-2.07273E-03 2.98390E-04 2.56173E-04-7.58134E-04-1.42322E-04-2.22370E-04
 -1        10-2.60937E-03 3.41703E-04 4.24701E-04-8.75081E-04 6.87729E-06 3.02500E-04
 -1        11 2.76077E-04 4.00667E-04-4.32531E-04-1.26466E-03-4.88767E-04-5.13493E-04
 -1        12 5.98410E-04 4.76699E-04-7.04816E-04-1.96426E-03 7.28817E-04 1.88847E-04
 -1        13-9.86701E-03 1.71593E-03 2.42290E-03-1.33385E-03 8.41225E-04 6.25742E-04
 -1        14-8.70870E-03 2.01784E-03 1.89742E-03-8.40842E-04-5.86836E-04-3.35261E-04
 -1        15-4.89299E-04-2.64481E-04 4.23165E-04-4.35758E-04-3.49528E-04 1.60396E-04
 -1        16-3.34074E-04-2.56914E-04 4.04962E-04-9.52517E-04 3.48938E-04-4.53059E-04
 -1        17 3.70280E-09-3.86276E-09-3.39092E-09 2.13019E-10-6.47752E-09-2.47333E-11
 -1        18 2.59316E-09-2.95410E-09-2.48294E-09-2.09664E-10-5.38255E-09 1.44041E-10
 -1        19-1.38710E-09 9.10235E-10 8.02871E-10 1.08236E-10-7.09712E-10 3.44606E-11
 -1        20-4.29275E-10 5.31018E-10 4.68524E-10 1.82064E-11-9.37190E-10-2.39716E-11
 -1        21-1.97630E-03-2.54629E-03 1.63177E-03 2.09580E-05 8.06079E-04 1.01572E-03
 -1        22 4.29544E-03-3.61006E-04-1.08255E-03 1.11039E-03-1.76141E-04 1.17062E-03
 -1        23-1.10147E-02 3.24716E-03 3.18919E-03 1.29313E-03 1.55020E-04-2.71257E-03
 -1        24-3.21269E-02 2.76889E-02 5.02543E-03 2.91725E-04 5.80719E-04 7.42318E-04
 -1        25-6.41371E-03-7.25123E-03 3.16242E-03-1.81736E-02-5.66957E-05 8.58162E-03
 -1        26 1.89526E-03 8.39819E-04-1.03027E-03 2.88239E-04 5.12541E-05-7.32520E-04
 -1        27-1.48763E-02-7.95788E-03 2.64265E-03-1.11734E-02 4.17848E-04-7.46065E-03
 -1        28-3.07653E-02 2.25445E-02 4.68335E-03-5.39471E-03 5.77366E-04-4.58036E-04
 -1        29 2.29976E-03 6.22473E-04-1.17283E-03-7.92856E-04-3.91434E-04 6.52133E-04
 -1        30-3.36679E-03-1.81643E-03 1.79336E-03 2.07570E-04-1.26596E-03-7.26119E-04
 -1        31-1.22471E-02 3.17787E-03 3.64932E-03 1.51562E-03-5.43981E-04 3.51542E-03
 -1        32 3.99679E-03-1.22885E-04-1.21008E-03 8.64369E-04 1.41948E-04-1.14771E-03
 -1        33-2.60253E-03 1.86624E-04 5.20699E-05-1.07490E-03-1.89360E-04-1.01171E-04
 -1        34-3.19827E-03 5.71611E-04 2.75633E-04-9.50881E-04 1.46694E-04 1.82279E-04
 -1        35 7.72623E-04 4.12378E-04-1.15100E-03-1.34776E-03-3.50130E-04-2.90476E-04
 -1        36 7.58199E-04 8.59561E-04-1.24435E-03-1.34957E-03 6.38570E-04 4.14731E-04
 -1        37-1.00924E-02 2.25692E-03 1.16303E-03-1.43753E-03 9.26178E-04-9.52857E-04
 -1        38-1.04805E-02 1.86743E-03 2.45297E-03-1.63451E-03 2.65399E-04 2.18885E-04
 -1        39-3.85224E-04-1.42326E-04 6.21261E-04-6.06226E-04-2.91447E-04 2.60187E-04
 -1        40-3.09687E-04-5.27238E-04 8.45265E-04-6.16917E-04 2.87620E-04-3.53677E-04
 -1        41 4.19515E-03-1.12949E-03-1.33370E-03-3.41834E-04-8.01270E-05 3.18629E-04
 -1        42 5.11674E-03-1.36641E-03-1.63404E-03-2.44552E-04-4.67306E-05 2.08563E-04
 -1        43 6.11056E-03-1.79141E-03-1.89236E-03-3.17751E-04-3.10284E-05 2.58950E-04
 -1        44 6.99310E-03-2.09535E-03-2.11626E-03-2.18809E-04-4.70121E-05 2.43352E-04
 -1        45 7.73310E-03-2.32408E-03-2.28985E-03-4.13117E-04-1.02678E-04 4.16851E-04
 -1        46 8.67380E-03-6.65616E-04-2.96637E-03 3.70524E-04-4.95849E-05 1.71366E-03
 -1        47-1.27775E-02 3.44894E-03 3.66440E-03-1.07691E-02-2.25300E-04 2.66023E-03
 -1        48-2.01966E-02 5.62287E-03 6.42167E-03-1.11238E-03 5.92934E-05 9.89480E-04
 -1        49-1.97647E-02 5.90493E-03 5.89260E-03-3.44609E-04 3.01929E-05 2.71402E-04
 -1        50-1.88987E-02 5.67530E-03 5.65386E-03-4.56231E-04 5.38520E-05 3.46905E-04
 -1        51-1.79931E-02 5.30087E-03 5.40963E-03-1.98067E-04-2.76351E-05 1.83365E-04
 -1        52-1.71958E-02 5.08297E-03 5.16752E-03-2.54202E-04 4.28814E-05 1.87196E-04
 -1        53-1.63698E-02 4.99850E-03 4.52877E-03-1.59325E-03 2.47527E-04 3.90158E-04
 -1        54 4.12451E-03-1.47363E-03-1.25908E-03-3.40777E-04 1.31430E-04-3.06295E-04
 -1        55 4.86818E-03-1.32347E-03-1.57879E-03-1.38723E-04 4.32006E-05-3.35854E-04
 -1        56 5.83912E-03-1.70112E-03-1.81034E-03-2.98740E-04 5.96374E-05-3.22684E-04
 -1        57 6.82338E-03-2.01083E-03-2.04366E-03-3.30121E-04 5.12055E-05-2.87578E-04
 -1        58 7.50419E-03-2.14588E-03-2.32136E-03-2.98481E-04 4.00961E-05-3.12869E-04
 -1        59 8.07272E-03-2.25676E-03-2.59878E-03-7.61564E-04 3.66923E-05-9.57142E-04
 -1        60 1.05322E-02-2.59003E-03-2.15765E-03-2.59180E-03-1.44880E-03-3.14201E-03
 -1        61-2.29390E-02 8.45914E-03 5.22763E-03-2.67197E-03 1.35736E-03-3.79708E-03
 -1        62-2.01218E-02 5.65666E-03 6.36183E-03-1.73267E-03-2.22683E-04-1.47945E-03
 -1        63-1.97802E-02 6.05433E-03 5.83421E-03-3.39246E-04-7.99683E-06-3.87523E-04
 -1        64-1.88865E-02 5.70789E-03 5.63345E-03-2.24590E-04-4.71723E-06-3.26994E-04
 -1        65-1.79404E-02 5.46127E-03 5.36592E-03-1.36533E-04 7.88855E-05-2.56889E-04
 -1        66-1.70877E-02 5.10037E-03 5.18173E-03-3.02551E-04 9.33942E-05-3.56703E-04
 -1        67-1.66322E-02 4.78375E-03 5.04339E-03-6.76131E-04-3.52488E-04-3.61959E-04
 -1        68 2.10682E-03-4.07593E-04-3.09482E-04-8.55109E-04-2.67857E-04 9.45306E-04
 -1        69-7.00337E-05 2.58072E-04-1.23731E-04-1.71893E-04 2.09257E-04-6.10940E-05
 -1        70-6.73460E-06 1.18663E-05-7.97458E-07 6.71118E-07 5.62998E-06-2.00912E-06
 -1        71-1.14539E-05 2.86528E-05-1.02323E-05 1.77604E-05-9.64700E-06-8.44811E-06
 -1        72-9.65025E-05 1.24776E-04 3.75573E-05-7.73681E-05 2.35606E-05 5.46769E-05
 -1        73-6.26208E-04 8.91106E-04-4.64828E-04 6.96453E-05-5.43708E-04-4.02393E-04
 -1        74 1.79624E-04 1.57152E-04 4.04041E-05-3.70646E-05-1.36829E-04 5.54259E-05
 -1        75 1.58072E-05 9.14177E-05-1.29685E-05-1.73150E-04-8.41162E-05 5.66432E-06
 -1        76-1.15613E-05 1.07660E-05-2.54465E-06-4.00834E-06-4.88231E-06-9.78760E-07
 -1        77 5.25026E-06 1.66141E-05-1.13640E-05 1.51595E-05 3.64346E-06 4.50398E-06
 -1        78-1.21915E-04 1.66255E-04-4.51718E-05-6.94725E-05-4.43621E-05-6.35382E-05
 -1        79 3.24562E-04 5.81463E-04-2.99114E-04 8.50346E-04 4.67645E-04 1.59423E-04
 -1        80 5.16063E-03-1.84683E-03-1.36752E-03-1.60020E-04 3.53884E-04 3.49353E-04
 -1        81 3.04912E-03-8.73996E-04-8.54246E-04 7.97831E-04 1.23694E-04 5.99799E-04
 -1        82 1.12296E-03-1.27872E-04-3.33657E-04 4.57369E-04 1.40616E-04 3.28096E-04
 -1        83 3.99506E-04-1.93490E-04-9.46475E-05 7.94969E-05-7.40829E-06 1.08042E-04
 -1        84-1.38708E-05-5.11688E-05 7.18629E-05 1.26638E-04 1.29362E-04 2.45278E-04
 -1        85-1.28029E-03 2.75957E-04 5.27101E-04 5.17332E-04 7.60968E-05 3.14023E-04
 -1        86-3.78127E-03 1.01296E-03 1.15134E-03 7.83559E-04-1.42768E-04 4.10643E-04
 -1        87 5.40102E-03-1.55583E-03-1.54466E-03 6.81662E-04-1.92310E-04-4.70991E-04
 -1        88 3.34606E-03-7.02922E-04-1.12522E-03 4.44006E-04-1.75029E-04-4.06353E-04
 -1        89 1.82418E-03-7.93857E-04-4.63256E-04 2.08042E-04-2.47095E-04-5.62394E-04
 -1        90 7.27385E-04-3.50935E-04-8.10121E-05 5.63599E-06-2.56831E-04-2.59889E-04
 -1        91 2.33137E-04 2.36775E-05-2.45602E-05 4.59434E-05-1.18610E-04-2.05304E-04
 -1        92-5.18151E-04 1.34491E-04 2.10593E-04 2.46945E-04-2.09919E-04-5.33163E-04
 -1        93-2.14025E-03 5.20115E-04 6.66840E-04 4.69513E-04-1.32159E-04-7.51365E-04
 -1        94-4.10158E-03 1.74536E-03 1.17202E-03 1.23130E-04 4.12854E-04-5.02604E-04
 -1        95 1.68953E-03-4.84966E-03 1.43078E-03 1.33920E-04 7.74206E-05-2.43920E-04
 -1        96 9.21924E-04-3.60745E-03 1.20067E-03 2.13739E-04 1.90854E-04 6.65071E-06
 -1        97 7.45022E-04-2.32792E-03 6.93544E-04 2.89116E-04 1.96320E-04-2.36372E-05
 -1        98 2.17727E-04-7.89901E-04 2.46212E-04 7.39223E-05 2.23952E-04 2.35804E-05
 -1        99-1.74323E-04 8.87798E-04-3.18042E-04 2.81076E-04 2.53189E-04 4.44220E-05
 -1       100-1.03026E-03 2.15817E-03-5.95132E-04 1.64603E-04 2.02135E-04 2.90277E-04
 -1       101 1.20692E-03-4.67001E-03 1.56045E-03 3.71009E-04-3.20398E-04 1.36608E-04
 -1       102 9.31512E-04-3.47443E-03 1.18637E-03 2.17739E-04-2.13178E-04 7.13675E-06
 -1       103 5.68784E-04-1.88853E-03 5.82727E-04 4.06215E-04-2.10141E-04-3.27587E-05
 -1       104 4.86857E-04-8.44136E-04 1.19494E-04 3.66643E-04-2.54035E-04-1.75337E-05
 -1       105-2.35645E-04 7.17868E-04-2.25727E-04 2.34431E-04-2.47969E-04-1.45156E-05
 -1       106-5.01992E-04 1.97606E-03-6.46167E-04 3.88674E-04-1.75904E-04-1.20902E-04
 -1       107-5.75076E-03 2.15552E-03 1.35144E-03-7.16351E-04 1.38681E-04 6.24426E-04
 -1       108-4.47586E-03 1.06114E-03 1.40674E-03 6.97920E-04 1.82072E-04-5.29918E-04
 -1       109-2.42975E-03 5.49157E-04 7.89453E-04 4.34796E-04 1.07688E-04-4.78605E-04
 -1       110-1.09655E-03 5.71621E-05 4.60594E-04 8.96740E-05-3.72573E-05-1.72907E-04
 -1       111-6.42832E-04 1.81087E-05 2.61796E-04 1.38963E-04-3.89051E-05-1.59401E-04
 -1       112 1.55813E-04-4.94241E-04 7.60359E-05 4.15213E-04 2.79285E-05-3.39575E-04
 -1       113 1.91441E-03-8.75348E-04-3.94028E-04 5.66319E-04-9.47045E-05-4.22276E-04
 -1       114 3.18414E-03-8.78131E-04-8.76102E-04 4.76808E-04-2.36671E-04-2.85041E-04
 -1       115 3.37323E-03-1.74419E-03-2.65609E-04-1.13442E-03-4.03529E-05 1.05934E-03
 -1       116-5.69734E-03 1.97782E-03 1.52211E-03-3.38063E-04-1.79518E-04-8.60747E-05
 -1       117-3.88835E-03 1.39021E-03 1.12638E-03 6.76363E-04 1.01077E-04 6.57012E-04
 -1       118-1.78244E-03 1.05363E-03 5.08583E-04 5.16763E-04 2.58252E-04 5.63276E-04
 -1       119-8.76543E-04 4.08023E-04 2.65642E-04 1.06230E-04 9.15254E-05 2.47219E-04
 -1       120-3.93527E-04-1.03489E-04 2.26932E-04 1.81189E-04 3.09055E-04 3.90195E-04
 -1       121 8.05011E-04-4.60713E-04-6.47937E-05 6.24895E-04 2.93059E-04 7.94573E-04
 -1       122 2.76305E-03-8.44574E-04-6.91038E-04 9.30638E-04 1.28889E-04 7.75286E-04
 -1       123 3.67699E-03-1.65173E-03-4.84803E-04-1.05715E-03-2.50188E-04-8.77315E-04
 -1       124-2.90471E-03 1.44952E-03 5.19368E-04-1.75728E-03-6.42069E-05 1.16897E-03
 -1       125-3.92875E-03 1.28354E-03 1.10771E-03-4.84775E-04-1.03051E-04 3.22268E-04
 -1       126-4.86280E-03 1.56621E-03 1.38551E-03-2.78717E-04-9.57485E-05 2.68033E-04
 -1       127-5.76571E-03 1.81626E-03 1.66020E-03-3.22593E-04-1.26106E-05 3.32772E-04
 -1       128-6.69421E-03 2.04509E-03 1.94991E-03-3.71161E-04 1.73790E-05 2.89944E-04
 -1       129-7.25336E-03 2.18118E-03 2.13720E-03-1.28289E-04 8.97105E-05 1.23219E-04
 -1       130-7.23019E-03 2.27155E-03 1.96445E-03 1.08793E-03 1.64772E-04-5.23598E-04
 -1       131-5.73821E-03 1.50363E-03 1.75718E-03 1.32204E-03-1.60238E-04-1.23693E-03
 -1       132-5.09626E-03 1.48335E-03 1.53606E-03-4.27064E-06 4.71331E-06 2.17262E-05
 -1       133-5.80696E-03 1.77792E-03 1.75594E-03-3.49541E-04-5.82276E-05 3.34447E-04
 -1       134-6.87342E-03 2.16233E-03 2.00264E-03-2.46677E-04-6.38483E-05 3.08494E-04
 -1       135-7.67869E-03 2.36206E-03 2.25903E-03-2.41648E-04 2.73619E-05 3.02646E-04
 -1       136-8.44486E-03 2.64159E-03 2.36759E-03-4.68989E-04-9.21514E-05 5.17665E-04
 -1       137-1.04444E-02 3.32654E-03 3.44042E-03-9.97184E-04 5.91565E-06 1.88046E-03
 -1       138-6.40413E-03 7.54805E-04 2.32370E-03 5.88544E-04-5.23817E-04 6.86235E-04
 -1       139 2.13256E-04-1.42226E-04 1.00481E-04 7.08294E-05 6.05460E-05-1.85957E-04
 -1       140-2.57735E-05 8.78704E-06 2.06029E-05-2.33520E-05 1.27438E-05-1.20672E-05
 -1       141-2.98455E-07 1.41594E-06 4.89566E-07 8.76879E-06 1.76600E-07-4.14317E-06
 -1       142 2.30355E-05 4.22559E-06-1.70345E-05 3.15801E-05-9.19693E-06 1.79436E-06
 -1       143 3.68701E-05 1.08560E-04-1.23491E-04 2.73165E-04-8.54215E-05 3.70940E-05
 -1       144 1.28733E-03-1.84465E-04-5.75257E-04 3.03756E-04-2.21954E-04-7.28147E-06
 -1       145-1.98792E-03 4.23109E-03-6.69498E-04-9.36873E-04-5.76766E-04-1.45183E-04
 -1       146-1.07730E-03 3.53402E-03-1.02114E-03 4.70357E-04 3.18760E-04-1.89137E-05
 -1       147-6.59021E-04 2.25197E-03-6.31074E-04 2.99726E-04 2.25500E-04 1.18505E-05
 -1       148-4.06023E-04 9.68441E-04-1.73938E-04 2.28573E-04 2.53000E-04 3.15645E-05
 -1       149 1.27725E-04-4.66505E-04 1.09797E-04 2.96326E-04 2.53431E-04-8.15571E-05
 -1       150 6.05848E-04-1.85188E-03 5.19227E-04 4.38282E-04 3.29394E-04-3.02831E-05
 -1       151 1.18709E-03-2.32596E-03 2.79684E-04-5.18935E-04-5.46765E-04-2.21206E-05
 -1       152-2.65920E-03 1.02960E-03 5.04953E-04-4.88987E-04 1.34714E-04-7.22669E-04
 -1       153-4.12200E-03 1.25963E-03 1.18106E-03-1.82768E-04-2.56953E-06-2.04162E-04
 -1       154-5.13347E-03 1.59547E-03 1.48694E-03-2.53040E-04-2.21145E-05-2.52513E-04
 -1       155-6.14196E-03 1.91058E-03 1.79074E-03-3.28705E-04-2.33865E-05-2.65645E-04
 -1       156-6.94393E-03 2.11561E-03 2.03560E-03-2.85562E-04-4.11076E-05-2.18691E-04
 -1       157-7.48696E-03 2.48602E-03 2.00444E-03 4.93463E-04-1.13252E-05 2.57363E-04
 -1       158-5.74177E-03 1.97009E-03 1.51038E-03 2.31299E-03 3.29208E-04 7.48416E-04
 -1       159-5.08609E-03 1.57892E-03 1.62127E-03 2.30521E-04 1.54009E-04 1.92100E-04
 -1       160-5.70681E-03 1.66359E-03 1.70901E-03-3.46006E-04 2.29548E-05-2.53351E-04
 -1       161-6.73130E-03 2.03541E-03 1.95441E-03-2.86904E-04-2.28808E-07-2.68254E-04
 -1       162-7.60238E-03 2.25691E-03 2.28426E-03-2.26360E-04-1.66178E-05-1.86714E-04
 -1       163-8.67190E-03 2.64670E-03 2.60747E-03-2.32378E-05 2.12465E-04-2.32029E-04
 -1       164-1.07982E-02 3.04313E-03 3.75387E-03-1.79201E-03-7.12252E-04-1.69040E-03
 -1       165-4.85795E-03 7.29364E-04 2.22398E-03 5.41448E-04 7.71847E-04-6.33040E-04
 -1       166 9.24885E-05-1.99628E-04 1.93813E-04 8.16026E-05-4.25591E-05 2.17652E-04
 -1       167-2.47007E-05 1.63866E-05 4.27410E-05-8.90583E-05-1.29720E-05 1.64800E-06
 -1       168 2.31257E-06 1.37249E-06 3.18427E-07-8.68271E-07-1.97474E-07 7.68573E-07
 -1       169 2.68058E-05 2.60757E-07-8.22035E-06 2.71147E-05 1.90989E-05 5.19277E-06
 -1       170 1.89240E-05 6.94742E-05-1.29263E-04 2.00882E-04 1.23416E-04-1.34883E-04
 -1       171 1.52778E-03-3.15017E-04-5.82950E-04 2.86150E-04 1.90217E-04 2.89387E-04
 -1       172-1.95334E-03 3.89842E-03-3.50939E-04-9.90372E-04 9.50896E-04 1.55583E-04
 -1       173-1.16211E-03 3.81878E-03-9.73345E-04 4.35550E-04-2.38448E-04-9.90180E-05
 -1       174-9.59174E-04 2.91768E-03-7.59249E-04 2.31659E-04-1.48408E-04-4.10860E-05
 -1       175-4.97186E-04 1.51877E-03-4.35429E-04 3.33388E-04-2.51174E-04 3.34208E-06
 -1       176 9.88157E-05-2.84678E-05-5.07370E-05 3.15945E-04-3.10183E-04-3.12409E-06
 -1       177 4.65961E-04-1.27327E-03 3.27291E-04 2.49409E-04-2.89290E-04 1.12288E-05
 -1       178 7.57331E-04-2.18013E-03 5.35097E-04 4.24466E-04-1.97396E-04 7.57316E-05
 -1       179 1.23202E-03-2.30490E-03 3.42253E-04-1.16975E-03 6.51788E-04-2.35065E-04
 -1       180-1.76489E-09 8.51972E-09-9.12651E-09-3.04000E-10 5.69535E-09-3.27744E-11
 -1       181-3.05777E-09-6.08660E-09 1.28030E-08-1.15750E-10 1.39158E-09-1.31255E-10
 -1       182-2.74295E-09-3.05719E-09 1.08894E-08-3.16503E-10 2.17643E-10-6.54815E-10
 -1       183-1.57385E-09 7.46055E-09-9.96309E-09 7.18261E-10 3.34215E-09 1.18361E-09
 -1       184 9.19488E-03-3.01681E-03 6.39975E-05-8.77973E-03-1.49526E-03 3.93299E-04
 -1       185-9.36468E-04 6.08598E-06 2.43998E-04 9.99862E-04 1.92687E-04 7.92454E-05
 -1       186 3.97435E-05-8.12513E-06-5.94351E-06-2.76101E-05 3.17906E-07-2.29904E-06
 -1       187-1.38158E-06 1.00713E-07-1.51607E-07 1.33989E-06-1.44131E-07 1.67532E-07
 -1       188 2.08923E-07-6.40299E-07 4.35008E-08-4.58534E-08-5.94138E-07-7.00695E-09
 -1       189-1.01261E-08 1.81436E-08-7.16129E-09-1.87038E-08-5.48330E-08-7.38758E-09
 -1       190-3.53296E-09 7.52637E-09-2.46449E-09 2.21438E-10-7.13632E-09-1.14748E-10
 -1       191 9.42475E-03-3.27667E-03-2.07263E-04-6.49443E-03-1.54172E-03-3.33895E-04
 -1       192-8.06938E-05-2.22773E-04 1.22597E-04 3.49188E-04 6.16406E-05-3.44230E-05
 -1       193-1.37469E-06 1.16700E-05 9.51975E-08-3.63793E-06 1.91530E-06-1.55158E-06
 -1       194-7.56819E-07-6.07792E-07 1.98023E-06 1.06407E-07 2.46070E-06-1.21908E-08
 -1       195-2.42746E-07 8.51368E-07-2.45691E-07 2.17785E-07 7.18904E-07 8.76277E-08
 -1       196-5.91487E-08 4.48495E-08 1.27521E-07 1.59485E-08 2.00057E-07 2.52547E-08
 -1       197-2.65198E-09 8.22555E-09-1.18226E-08 1.26203E-09-9.54475E-09-1.66315E-09
 -1       198-3.29693E-03-1.28164E-02 7.14093E-04-3.89296E-03-1.86183E-04-1.81000E-04
 -1       199-3.47486E-03-8.92683E-03 6.99418E-04-1.01753E-03-2.80998E-03 1.83129E-03
 -1       200 7.12020E-03-3.51942E-03-1.30421E-03-7.92638E-03-5.20815E-04 3.09342E-04
 -1       201 1.30496E-04 7.33448E-05 1.28171E-04 1.00460E-03 1.88334E-04 5.05015E-04
 -1       202-1.39452E-05 1.11987E-05 1.58671E-06-7.79291E-06-2.00273E-07 9.87610E-06
 -1       203-7.87203E-07-3.34507E-07 2.34288E-06 8.32604E-07 3.13604E-06 9.77481E-07
 -1       204-2.52146E-07 8.79351E-07-1.54598E-07 7.08730E-09 8.42208E-07-1.53872E-08
 -1       205-4.54317E-08 2.51358E-08 1.10696E-07 5.79453E-09 1.78425E-07 8.56719E-09
 -1       206-4.24354E-09 1.71641E-08-1.07243E-08-2.30650E-09 4.59506E-10-1.58995E-09
 -1       207 5.98971E-03-3.11448E-03-1.16130E-03-4.05451E-03 6.83827E-04 4.80575E-04
 -1       208-8.40516E-05 5.98824E-05 8.87638E-05 7.06219E-05 1.40173E-04 1.70630E-05
 -1       209 4.51565E-06-5.34412E-06-7.83109E-06-1.66387E-06-3.10197E-06-4.67547E-06
 -1       210-8.26252E-09-2.45621E-07-5.56595E-07 3.82650E-07-4.17526E-07 1.32154E-07
 -1       211 2.74136E-07-5.24896E-07-9.91274E-08-1.44320E-08-6.60254E-07 3.75578E-08
 -1       212 1.23906E-09 5.76321E-09-7.74048E-09-7.28668E-10-6.01816E-08-1.28547E-09
 -1       213-3.35477E-09 8.98622E-09-3.60299E-09-1.30747E-09-4.62539E-09 2.06910E-10
 -1       214-2.14042E-02 2.41552E-02 2.68235E-03 6.40695E-03-1.70955E-03 4.55829E-06
 -1       215-1.87574E-02 2.26537E-02 1.92810E-03 1.65607E-03 7.48261E-04 1.03673E-03
 -1       216 5.39851E-03-1.62799E-03-1.54744E-03-2.74292E-04 2.30740E-05-1.32709E-04
 -1       217 6.36822E-03-1.88597E-03-1.85681E-03-1.86959E-04 4.03163E-05-7.20657E-05
 -1       218 7.57514E-03-2.23638E-03-2.21679E-03-2.24820E-04 3.92918E-05-9.10403E-05
 -1       219 8.68198E-03-2.62010E-03-2.52290E-03-2.49613E-04 3.86867E-05-1.23474E-04
 -1       220 9.20204E-03-2.81829E-03-2.71202E-03-2.95649E-04 4.72994E-05-2.91207E-04
 -1       221 9.61293E-03-2.85121E-03-3.11257E-03-4.78990E-04-7.36263E-06-6.04959E-04
 -1       222 8.58892E-03-2.54156E-03-3.62968E-03-6.40975E-04-4.17710E-04-1.86015E-03
 -1       223 1.04468E-02 7.34498E-05-2.95987E-03 1.53287E-03 1.24641E-03 2.66153E-03
 -1       224 9.48246E-03-2.38141E-03-3.26979E-03-2.96825E-04-1.27348E-04 1.19460E-03
 -1       225 9.30162E-03-2.86714E-03-2.72663E-03-2.06248E-04-8.10424E-05 2.11404E-04
 -1       226 8.44604E-03-2.68318E-03-2.45913E-03-2.40530E-04-4.22549E-05 1.80673E-04
 -1       227 7.30220E-03-2.42934E-03-2.08711E-03-2.27424E-04-8.23594E-06 1.73207E-04
 -1       228 6.06234E-03-2.05235E-03-1.70422E-03-1.38109E-04-2.95206E-05 1.24729E-04
 -1       229 5.18018E-03-1.56496E-03-1.40691E-03-1.36465E-04-5.51108E-05 3.05373E-04
 -1       230-2.16770E-02 6.45399E-03 6.45565E-03-1.57315E-03 4.62099E-04-1.75042E-03
 -1       231-2.18955E-02 6.24619E-03 7.00086E-03-4.54260E-04-5.99622E-05-4.57244E-04
 -1       232-2.12387E-02 6.38888E-03 6.34286E-03-1.91305E-04-1.33606E-04-1.49779E-04
 -1       233-2.00683E-02 6.03635E-03 5.99545E-03-3.26572E-04-1.95290E-05-4.77630E-05
 -1       234-1.88817E-02 5.68666E-03 5.66000E-03-1.16155E-04-5.75571E-05-1.04408E-05
 -1       235-1.78833E-02 5.38454E-03 5.36240E-03-2.13144E-04 6.63792E-05-2.53522E-04
 -1       236-1.71200E-02 5.04635E-03 4.59605E-03 4.64691E-05 1.00896E-04 4.63626E-04
 -1       237-1.84368E-02 5.51110E-03 5.57872E-03-2.08484E-04 1.82830E-05 1.08772E-04
 -1       238-1.93842E-02 5.84525E-03 5.85018E-03-1.72478E-04-4.16353E-05 1.18172E-04
 -1       239-2.03068E-02 6.09782E-03 6.09584E-03-2.61810E-04-5.33253E-06 2.06114E-04
 -1       240-2.12672E-02 6.45204E-03 6.33408E-03-3.12321E-04-3.98019E-05 1.73914E-04
 -1       241-2.18354E-02 6.40844E-03 6.58515E-03-2.60626E-04 1.86073E-04 4.55513E-04
 -1       242-2.20460E-02 6.45637E-03 6.90096E-03-9.02933E-04 1.26781E-04 9.00874E-04
 -1       243-2.07680E-02 4.97418E-03 6.15542E-03-1.28345E-03-5.61653E-04 1.67415E-03
 -1       244 1.86553E-03-5.48463E-03 1.44963E-03 3.88645E-04-4.32278E-05-4.56009E-05
 -1       245 1.39018E-03-4.18766E-03 1.17067E-03 1.78671E-04-2.05821E-04 1.59446E-05
 -1       246 6.07549E-04-2.31668E-03 6.91878E-04 3.78868E-04-1.34386E-04-4.25075E-05
 -1       247 2.66493E-04-1.06264E-03 3.05210E-04 1.83401E-04-1.55650E-04 3.97191E-05
 -1       248-4.65303E-04 8.56125E-04-1.48391E-04 2.73867E-04-2.20472E-04 1.56801E-05
 -1       249-7.83424E-04 2.27017E-03-5.64700E-04 3.39896E-04-1.50694E-04 1.45218E-05
 -1       250-8.93889E-04 2.40071E-03-4.37187E-04 4.00289E-04 1.10601E-04-2.63364E-05
 -1       251-3.51969E-04 9.42952E-04-2.41929E-04 1.95657E-04 1.27354E-04 6.21713E-05
 -1       252 3.37356E-04-8.31599E-04 2.15658E-04 2.66192E-04 1.13272E-04 2.57613E-05
 -1       253 9.11614E-04-2.67311E-03 7.03447E-04 4.47691E-04 2.86404E-04 1.62756E-05
 -1       254 1.36478E-03-4.27977E-03 1.19197E-03 1.47120E-04 1.30208E-04-3.85612E-05
 -1       255 1.94953E-03-5.46041E-03 1.13681E-03 4.17264E-04-6.41049E-05 6.25094E-05
 -1       256 6.29694E-03-2.03355E-03-1.75084E-03 5.79501E-04-4.51439E-05-2.61369E-04
 -1       257 3.45096E-03-9.11788E-04-1.09983E-03 6.96700E-04 1.15556E-04 4.70924E-05
 -1       258 1.38364E-03-1.85753E-04-5.35866E-04 2.66733E-04 3.59771E-04 2.02644E-04
 -1       259 6.06814E-04-1.83765E-04-2.49543E-04-5.73506E-05 1.96815E-04 1.51278E-04
 -1       260 4.07761E-06-1.40294E-04-1.51748E-05 6.11468E-05 8.80478E-05 1.04607E-04
 -1       261-1.69721E-03 5.36864E-04 4.03470E-04 2.94302E-04 2.29902E-04-3.97673E-05
 -1       262-4.24069E-03 1.36579E-03 8.76329E-04 6.76231E-04 2.06206E-04-1.14735E-04
 -1       263-4.04804E-03 1.42983E-03 1.07033E-03 6.22086E-04-3.45404E-05 8.69514E-05
 -1       264-1.36703E-03 5.36339E-04 3.51772E-04 3.92526E-04-6.76086E-06 1.80806E-04
 -1       265 6.31442E-05 1.58344E-04-6.58305E-05 5.77549E-05 8.98669E-05 2.20671E-05
 -1       266 5.42279E-04-2.37510E-06-2.44369E-04-2.84422E-05 7.78459E-06 2.13564E-05
 -1       267 1.36390E-03-3.27475E-04-4.77561E-04 1.34507E-04 5.45292E-05 6.93745E-05
 -1       268 3.59330E-03-1.17514E-03-1.05913E-03 3.36269E-04-4.18155E-05 2.57720E-04
 -1       269 6.13851E-03-1.90484E-03-1.59539E-03 6.22583E-04-8.02825E-06 2.51344E-04
 -1       270 7.44651E-04 5.21022E-04-6.14702E-04-2.19500E-04-1.19716E-04 3.76667E-04
 -1       271 1.81893E-04 7.69242E-05-7.27753E-05-2.19422E-04-7.89270E-05 3.74732E-05
 -1       272-7.54473E-06 5.23802E-06-4.99747E-07 6.93899E-06-6.17517E-06 4.87833E-06
 -1       273-5.69950E-07 2.06767E-05-6.66105E-06 1.29557E-05 5.36396E-06-4.85374E-07
 -1       274-1.58673E-04 1.49756E-04-1.16333E-05-6.06539E-05 6.55447E-07-3.33708E-05
 -1       275-6.49168E-05 3.66181E-04-5.60023E-05 2.93129E-04 9.69091E-05 6.88128E-05
 -1       276-1.06410E-04 4.82582E-04-1.77555E-04 5.11708E-04-1.20838E-04 5.91668E-05
 -1       277-1.52218E-04 8.88405E-05 4.09682E-05-7.79864E-05 2.38234E-05 1.27865E-05
 -1       278-1.01645E-07 2.62652E-05-2.51463E-06 9.39018E-06-2.02599E-06 1.16953E-06
 -1       279 1.43433E-05 8.56371E-06-2.04603E-05-1.13914E-05 1.26459E-06 1.07905E-05
 -1       280 1.89149E-04 2.94795E-04-3.38450E-04-3.52037E-04 2.05639E-04 4.18610E-05
 -1       281 6.73983E-04 4.56217E-04-7.79172E-04-3.37660E-04 1.83313E-04-1.58658E-04
 -1       282-7.13156E-03 2.55972E-03 1.83137E-03-5.08409E-04 5.77787E-05 7.84614E-05
 -1       283-5.17959E-03 1.66299E-03 1.47457E-03 6.89232E-04 2.87722E-05-3.18956E-04
 -1       284-2.49909E-03 1.02847E-03 6.61431E-04 3.71878E-04-5.03285E-05-8.42348E-05
 -1       285-1.13537E-03 5.11772E-04 2.94287E-04-3.46753E-05-3.93203E-05-2.67207E-05
 -1       286-5.68999E-04 5.09939E-04 8.22545E-06 7.00479E-05 7.21933E-05 3.17497E-05
 -1       287 7.98444E-04 7.15510E-05-3.28324E-04 1.05364E-04-2.68596E-05-2.57066E-05
 -1       288 3.15613E-03-5.29111E-04-1.14980E-03 2.29537E-04-1.42363E-04-1.29105E-04
 -1       289 5.09334E-03-1.92874E-03-1.06933E-03-8.93234E-04-6.08775E-05 4.46530E-04
 -1       290-6.83684E-03 2.64536E-03 1.70806E-03-3.72932E-04-4.25866E-05-4.62251E-04
 -1       291-5.58729E-03 1.24381E-03 1.62480E-03 3.48678E-04-1.66190E-04 1.16656E-04
 -1       292-2.93457E-03 4.89783E-04 8.30368E-04 1.79232E-04-2.47655E-04-1.82449E-04
 -1       293-1.34503E-03 1.55164E-04 3.93491E-04 3.81594E-06-1.42396E-04-1.14804E-04
 -1       294-7.97903E-04 3.04492E-04 1.66490E-04-1.05704E-04-1.72406E-04-1.34201E-04
 -1       295 1.15873E-04 1.26151E-04-1.55974E-04 6.48600E-05-3.09973E-04-1.31026E-04
 -1       296 2.18990E-03-4.98210E-04-7.04196E-04 3.96010E-04-1.13510E-04 9.76720E-05
 -1       297 4.60966E-03-1.07263E-03-1.41359E-03 4.80277E-04-1.13773E-05 9.98918E-05
 -1       298 3.51601E-03-1.36674E-03-7.42139E-04-6.99703E-04 1.64511E-04-8.17467E-04
 -1       299-2.53000E-03 1.18537E-03 5.36957E-04-7.98826E-04 3.10142E-05 7.13167E-04
 -1       300-4.53612E-03 1.20672E-03 1.45355E-03-2.23304E-04 1.44192E-05 1.70653E-04
 -1       301-5.58581E-03 1.58139E-03 1.75401E-03-1.66526E-04 2.98668E-05 9.35082E-05
 -1       302-6.61983E-03 1.85115E-03 2.07147E-03-1.53176E-04 5.26763E-05 9.11957E-05
 -1       303-7.86043E-03 2.29619E-03 2.39644E-03-2.01094E-04 8.14043E-05 1.26183E-04
 -1       304-8.79911E-03 2.61988E-03 2.60270E-03-1.98060E-04 1.06558E-04 1.32809E-04
 -1       305-9.32002E-03 3.23683E-03 2.41582E-03 2.33681E-04 2.02304E-04-1.11973E-04
 -1       306-6.98804E-03 2.53569E-03 2.02489E-03 1.87686E-03-4.65650E-05-1.02765E-03
 -1       307-3.05170E-03 3.04334E-04 1.37136E-03 4.41098E-04-2.04390E-04-1.12600E-04
 -1       308-3.53342E-03 9.71986E-04 1.16301E-03-1.65065E-04-1.15048E-04 8.52048E-05
 -1       309-4.51121E-03 1.26401E-03 1.40575E-03-2.64641E-04 5.45977E-05 7.84195E-05
 -1       310-5.74008E-03 1.73292E-03 1.71386E-03-1.06780E-04 2.55562E-05 8.02726E-06
 -1       311-6.72461E-03 1.92451E-03 2.05315E-03-1.73132E-04-9.76088E-06 9.75040E-05
 -1       312-7.67481E-03 2.65100E-03 2.20362E-03-2.37921E-04-2.78856E-04 3.94929E-04
 -1       313-1.07846E-02 2.99457E-03 4.12135E-03-9.71572E-04-7.19596E-04 2.63195E-04
 -1       314-1.68868E-03 4.90272E-03-1.30820E-03-8.81340E-04-7.48225E-04 1.23646E-04
 -1       315-1.15716E-03 4.65755E-03-1.60523E-03 4.40605E-04 2.66154E-04-2.84700E-06
 -1       316-8.38878E-04 2.96432E-03-8.94289E-04 3.05566E-04 1.56894E-04 7.84892E-05
 -1       317-3.37407E-04 1.20096E-03-3.55331E-04 3.33059E-05 1.86237E-04-2.17450E-05
 -1       318 2.76647E-04-4.49281E-04 5.37877E-05 2.69744E-04 1.48601E-04-1.22772E-04
 -1       319 6.14301E-04-2.13887E-03 6.57291E-04 3.48516E-04 2.29168E-04 8.09859E-06
 -1       320 1.38251E-03-3.02776E-03 6.66489E-04-6.75653E-04-3.06856E-04 4.83900E-05
 -1       321-3.44920E-03 2.37636E-04 1.09547E-03 3.62661E-04 1.51548E-04-9.85911E-06
 -1       322 2.13327E-04-2.13117E-05 1.09418E-04 2.02431E-05-1.18272E-05-4.02594E-04
 -1       323-5.68900E-05 7.00245E-06 4.70933E-05-4.60408E-05 1.65905E-05 1.47154E-05
 -1       324 1.99976E-06 2.95724E-07-1.44035E-06 2.62259E-06 1.16014E-07-1.41220E-06
 -1       325 2.38234E-05 8.33971E-07-1.18995E-05 2.93221E-05-7.33466E-06 3.87258E-06
 -1       326 1.49696E-04 5.33902E-05-8.96862E-05 3.64975E-04-5.55136E-05 1.42786E-04
 -1       327 1.47469E-03-3.88729E-04-5.01834E-04 4.72200E-05-1.85787E-04-8.78400E-05
 -1       328-3.54551E-03 1.17571E-03 1.01537E-03-1.09305E-03 1.29220E-05-4.83590E-04
 -1       329-5.19990E-03 1.38221E-03 1.67838E-03-2.46771E-04-1.56543E-05-1.46852E-04
 -1       330-6.39713E-03 1.92082E-03 1.95891E-03-2.16592E-04-1.71072E-05-1.47702E-04
 -1       331-7.61687E-03 2.32427E-03 2.28065E-03-2.90084E-04-2.60655E-05-1.62771E-04
 -1       332-8.62567E-03 2.62883E-03 2.54801E-03-2.45046E-04-3.73974E-05-1.37027E-04
 -1       333-9.37546E-03 3.05258E-03 2.59406E-03 8.35899E-05-9.31407E-05-4.19778E-05
 -1       334-7.48104E-03 2.21717E-03 1.99365E-03 9.03867E-04-4.90945E-04 5.89811E-04
 -1       335-3.73544E-03 4.06499E-04 1.63080E-03 3.93315E-04 7.58301E-05 7.60308E-04
 -1       336-3.36460E-03 8.53081E-04 1.13644E-03-1.16661E-04 7.93370E-05-5.70690E-05
 -1       337-4.17231E-03 1.16595E-03 1.34403E-03-3.17562E-04 1.40893E-05-1.56517E-04
 -1       338-5.44698E-03 1.65556E-03 1.64441E-03-2.25503E-04 6.24030E-06-1.41837E-04
 -1       339-6.47670E-03 1.89301E-03 1.97223E-03-1.89796E-04 2.44757E-05-1.32833E-04
 -1       340-7.74618E-03 2.49688E-03 2.35202E-03-1.35178E-04 1.84168E-04-2.98740E-04
 -1       341-1.00112E-02 3.17982E-03 3.26339E-03-1.32730E-03 6.03455E-05-7.11602E-04
 -1       342-1.88538E-03 4.71907E-03-1.04446E-03-1.26499E-03 1.08195E-03 1.29718E-04
 -1       343-1.20455E-03 4.99216E-03-1.66283E-03 6.11057E-04-1.95165E-04-8.87625E-05
 -1       344-1.13383E-03 3.69964E-03-1.13082E-03 1.51743E-04-1.66401E-04 2.72046E-05
 -1       345-7.76626E-04 2.15084E-03-6.31280E-04 1.70678E-04-2.21631E-04-4.74661E-05
 -1       346 3.26603E-05 3.26306E-04-1.99168E-04 4.03345E-04-2.62972E-04 1.31411E-05
 -1       347 3.66503E-04-1.32830E-03 4.14001E-04 2.43985E-04-2.38234E-04 1.33438E-05
 -1       348 6.11070E-04-2.52321E-03 7.91804E-04 3.24639E-04-1.60680E-04 5.60293E-05
 -1       349 1.03297E-03-2.73770E-03 6.04285E-04-4.32679E-04 4.58494E-04 4.09803E-05
 -1       350-5.88142E-03 2.30999E-04 1.99090E-03 9.25587E-04 1.55334E-04-3.97979E-05
 -1       351 2.45203E-04-2.60405E-04 3.04209E-05 9.54040E-05-1.39700E-04 2.66291E-04
 -1       352-3.87265E-05 4.42088E-06 1.42383E-05-3.10667E-05-1.55701E-05 2.23814E-05
 -1       353 2.87449E-06 4.63592E-07-2.90995E-07-7.71154E-07 6.64855E-07 3.18172E-06
 -1       354 4.27646E-05-1.49660E-06-1.57332E-05 2.44831E-05 1.63157E-05-2.41593E-06
 -1       355 5.01402E-05 1.04905E-04-1.20633E-04 3.61328E-04 1.08391E-05-2.08744E-04
 -1       356 1.89771E-03-3.28085E-04-4.55544E-04 3.20761E-04 1.73341E-04-9.39324E-05
 -1       357-2.98663E-02 5.89500E-03 7.60355E-03 7.37067E-03-7.50797E-06-7.65525E-05
 -1       358-9.28443E-03 1.72832E-03 3.17075E-03-3.49818E-04 1.26036E-04 1.05171E-03
 -1       359-6.45171E-03 2.16721E-03 1.82703E-03 1.03772E-03 7.02112E-05 1.07589E-03
 -1       360 3.60323E-04-1.25166E-03 3.83098E-04 4.81765E-04 2.69872E-05 8.58517E-06
 -1       361 8.43860E-03-4.40433E-03-2.19607E-04-1.08027E-02 2.91423E-03-1.40366E-03
 -1       362-2.66893E-04 4.72425E-05-4.03899E-05 4.59158E-04-9.53102E-05-7.65895E-05
 -1       363 1.61404E-09-4.98758E-08 4.50225E-08-5.65214E-09 4.14753E-08-2.48915E-09
 -1       364 6.67177E-04-1.72590E-03-2.26743E-04-2.51306E-03 1.48595E-03-3.54418E-04
 -1       365-2.34235E-05 6.79067E-05-2.91203E-05-1.16816E-05-6.27637E-05-9.90850E-06
 -1       366-1.20522E-09-4.93664E-08 4.48512E-08 9.05329E-10 2.81986E-08 5.04863E-11
 -1       367 1.16257E-03-2.92915E-04 2.02957E-04-1.30769E-03-2.80443E-04-5.79261E-04
 -1       368-2.54199E-08 8.41687E-08-1.54772E-08 1.32754E-08 4.80010E-08 8.62682E-09
 -1       369 4.46833E-05 4.61738E-05-1.51116E-05 3.32986E-05 2.81115E-05-4.76642E-06
 -1       370-1.06534E-07 3.11724E-07 4.06973E-08 3.93287E-08 3.72795E-07 1.42627E-09
 -1       371-1.68578E-06 2.28190E-06 1.12725E-07 1.97883E-06 3.72297E-06-2.86506E-07
 -1       372-4.92797E-07 7.66828E-07 4.23116E-07 4.63793E-07 1.28496E-06 2.79914E-07
 -1       373 1.17586E-02 2.00782E-04-5.02767E-03 3.12667E-03 1.38416E-04-4.97040E-04
 -1       374-3.71129E-04-2.87099E-04-8.55699E-05-3.19636E-04-1.37272E-04-1.32323E-04
 -1       375-5.90268E-09 2.44261E-08-4.60891E-09-4.02501E-09-1.82819E-08 1.25245E-09
 -1       376-2.71019E-05-8.90933E-05 2.78323E-05 5.44333E-05 9.23017E-05 1.47503E-05
 -1       377 3.33141E-06-2.53262E-07-4.28302E-06-3.89665E-06-2.83916E-06-2.39113E-06
 -1       378 3.78655E-07-7.89790E-07 2.83867E-07 3.09261E-07-1.14467E-06 2.46895E-07
 -1       379-2.42315E-02 6.56372E-03 8.66585E-03 1.38898E-05-1.33430E-05 5.78904E-05
 -1       380-4.48312E-03 3.48999E-03-4.76063E-04-1.15418E-03-7.76652E-05-1.25909E-03
 -1       381-8.93998E-03 9.67713E-04 3.70721E-03-8.85259E-04 4.49317E-05-1.00599E-04
 -1       382-7.57075E-04 1.13978E-03 2.11763E-04-1.14377E-03 7.57909E-05 6.44372E-04
 -1       383-1.45572E-02 3.52185E-03 4.87413E-03-1.20293E-03 7.92214E-05-6.12391E-05
 -1       384-5.28066E-03 1.79233E-03 2.13303E-03-1.99146E-03 1.86698E-03 8.63589E-05
 -1       385-1.28696E-02 3.43449E-03 4.34441E-03-5.22888E-04-1.97292E-04-6.41048E-04
 -1       386-1.12389E-02 2.47938E-03 4.13640E-03-3.95064E-04-1.84008E-04-9.46306E-04
 -1       387-8.88809E-03 1.05256E-03 3.33426E-03 4.03690E-04-3.29445E-04-5.69162E-04
 -1       388-2.30537E-03 2.27530E-03-1.85447E-04-4.16789E-04 6.40579E-04 1.14910E-03
 -1       389 2.31516E-03 2.26350E-04-1.21065E-03-1.19620E-03 1.61088E-04-5.25675E-04
 -1       390 1.58434E-03-3.88937E-04 2.44280E-03-2.28800E-03-1.62908E-03-1.52878E-03
 -1       391 1.52660E-05-2.86271E-04 1.56776E-04 4.58799E-04-2.12832E-05 2.49577E-06
 -1       392-3.44796E-04 5.61659E-04 1.28730E-05 5.13093E-05 3.76108E-05 2.06567E-05
 -1       393-1.17587E-02 2.80617E-03 4.14691E-03-1.48236E-03 5.69797E-04-1.77218E-04
 -1       394-1.16022E-02 3.58310E-03 3.47550E-03 4.48160E-04-1.36187E-04-1.41123E-04
 -1       395-8.12694E-04-3.18230E-03 1.74302E-03-1.63880E-02-4.34744E-04 2.95945E-04
 -1       396 2.24503E-06-1.89699E-07-2.08402E-06-9.40701E-07-9.71128E-07 8.17924E-07
 -1       397-3.26469E-09-2.92108E-07 4.95737E-07-5.64912E-07 2.74681E-07-2.26124E-07
 -1       398 1.25828E-03 3.04758E-04-1.33710E-03 5.91040E-04 1.15191E-04 1.04147E-04
 -1       399-6.87509E-03 1.45632E-03 3.57416E-03 3.40381E-03-1.35011E-04 9.01734E-05
 -1       400 3.12240E-03-2.22533E-04-1.32921E-03-5.59998E-04-1.10003E-04 4.53777E-04
 -1       401 4.68093E-03-1.09640E-03-1.46148E-03-4.39974E-04 1.39675E-04 1.63830E-04
 -1       402 5.65085E-03-1.53380E-03-1.79762E-03-4.05939E-04 1.48335E-04 1.98451E-04
 -1       403 6.60595E-03-1.88947E-03-2.05341E-03-4.28206E-04 9.50000E-05 2.28697E-04
 -1       404 7.34945E-03-2.13318E-03-2.24295E-03-3.89611E-04-7.99190E-05 2.79394E-04
 -1       405 7.78321E-03-1.82760E-03-2.63873E-03-1.21104E-03-6.29675E-05 1.12421E-03
 -1       406 4.34743E-03 9.37872E-04-5.27132E-04-4.32789E-03 6.67655E-04 2.06388E-03
 -1       407-2.00400E-02 4.99006E-03 6.14109E-03-4.58694E-03-2.37938E-04 1.86917E-03
 -1       408-2.01807E-02 5.84487E-03 6.14519E-03-6.74265E-04 8.06115E-05 5.24378E-04
 -1       409-1.93493E-02 5.75203E-03 5.75511E-03-4.46571E-04 3.85428E-05 2.77695E-04
 -1       410-1.84205E-02 5.52041E-03 5.52649E-03-4.15749E-04-5.07557E-05 2.26651E-04
 -1       411-1.75715E-02 5.27181E-03 5.30770E-03-3.48137E-04 1.16222E-04 1.66298E-04
 -1       412-1.66200E-02 4.94686E-03 4.86074E-03-3.20429E-04-4.32354E-05 3.76674E-04
 -1       413-1.42148E-02 4.49618E-03 4.44248E-03-2.73561E-03 3.88079E-04 2.24374E-03
 -1       414 2.98660E-03-4.89962E-04-1.20495E-03-6.59290E-04 3.40917E-04-2.98599E-04
 -1       415 4.55684E-03-1.22675E-03-1.42569E-03-1.36761E-04 6.83540E-05-3.07990E-04
 -1       416 5.41453E-03-1.59083E-03-1.69568E-03-3.36356E-04 1.50563E-04-2.26052E-04
 -1       417 6.36472E-03-1.89669E-03-1.94284E-03-3.99683E-04 1.62810E-04-2.50578E-04
 -1       418 7.20690E-03-2.07868E-03-2.17909E-03-4.02890E-04 6.75293E-05-2.57799E-04
 -1       419 7.70425E-03-2.04716E-03-2.59664E-03-5.82854E-04 1.03064E-04-5.95539E-04
 -1       420 7.81348E-03-1.94747E-03-2.46095E-03-1.38198E-03 6.43715E-05-1.36802E-03
 -1       421-4.18867E-03 6.91686E-03 1.11010E-03-2.18576E-03 4.61823E-05-5.43037E-03
 -1       422-2.05112E-02 5.61154E-03 6.19564E-03-3.92042E-03-9.30554E-05-3.48258E-03
 -1       423-2.00081E-02 5.81957E-03 6.25153E-03-9.19310E-04-1.18486E-04-7.23412E-04
 -1       424-1.93880E-02 5.81968E-03 5.75780E-03-3.79433E-04-4.74682E-05-3.27621E-04
 -1       425-1.84377E-02 5.43640E-03 5.50924E-03-1.39056E-04 6.44969E-05-1.99106E-04
 -1       426-1.75809E-02 5.19657E-03 5.29674E-03-2.65531E-04 1.12465E-04-2.04933E-04
 -1       427-1.68328E-02 4.92095E-03 5.07015E-03-2.78765E-04 1.21411E-04-3.87895E-04
 -1       428-1.37655E-02 3.54600E-03 4.13072E-03-1.20949E-03-6.94389E-04-1.77292E-03
 -1       429 2.14869E-03-5.41679E-05-1.00666E-03 1.65901E-03 1.03807E-04-5.93548E-06
 -1       430-5.49528E-03 9.56609E-04 1.85702E-03 1.80955E-03-1.72671E-03 2.71210E-03
 -1       431 4.97455E-05 3.53356E-04-1.61004E-04-3.38208E-04 1.75929E-04 1.28782E-04
 -1       432-1.08713E-05 8.85187E-05-4.07925E-05-4.82282E-05 2.84416E-05-1.68326E-05
 -1       433-4.32238E-06 2.17858E-05-6.09842E-06 1.95597E-06 6.09178E-07-1.19806E-06
 -1       434-7.07027E-05 8.51041E-05-3.17389E-05 3.27065E-05-3.18384E-05-1.14533E-05
 -1       435-6.84186E-05 3.25315E-04-1.53362E-04 9.94815E-05-8.31415E-05-9.06834E-06
 -1       436 1.83563E-03 4.11757E-04-1.03237E-03 1.06955E-03-1.04442E-03-1.35651E-03
 -1       437-4.69629E-03 8.70766E-04 1.49897E-03 2.30285E-03 8.10372E-04-1.58242E-03
 -1       438 8.95705E-05 4.05400E-04-3.68869E-04-3.40222E-04-6.53327E-05-1.54133E-04
 -1       439-1.84897E-05 6.03065E-05-3.04840E-05-2.37184E-05 7.79421E-07-3.00181E-05
 -1       440-7.06541E-06 1.87097E-05-5.74187E-06 2.29860E-06 1.16894E-07-7.27265E-07
 -1       441-6.11913E-06 6.60574E-05-1.10819E-05 2.60760E-05 1.90896E-05 1.92828E-05
 -1       442-9.14258E-05 2.96302E-04-2.73331E-05 2.04461E-04 9.24935E-05 5.01030E-05
 -1       443 2.10513E-03 3.28561E-04-7.19966E-04 1.42753E-03 5.67400E-04 5.85395E-04
 -1       444-1.21558E-03-1.20035E-03 2.22889E-03 1.05383E-03 2.67348E-04-3.85222E-04
 -1       445 4.19762E-03-8.68921E-04-1.37793E-03-4.76401E-04 8.11613E-04-2.09505E-04
 -1       446 4.16453E-03-1.22940E-03-1.10670E-03 8.80584E-04 7.95917E-05 4.24909E-04
 -1       447 2.19591E-03-4.63029E-04-5.89180E-04 7.10309E-04 2.11884E-05 3.64974E-04
 -1       448 7.76298E-04-9.81918E-05-1.85796E-04 2.01148E-04-6.21482E-05 1.07078E-04
 -1       449 2.62009E-04-1.41181E-04-2.12391E-05 6.85663E-05 1.03001E-04 1.08475E-04
 -1       450-5.46180E-04 4.40929E-05 2.87171E-04 3.81298E-04 1.71372E-04 1.58512E-04
 -1       451-2.43746E-03 3.76071E-04 7.75394E-04 9.24916E-04 2.73504E-06 2.94919E-04
 -1       452-3.38098E-03-2.37312E-04 1.65657E-03 2.32096E-04-5.56777E-04-1.37706E-05
 -1       453 4.26300E-03-6.00119E-04-1.36460E-03 2.49711E-04-3.51744E-04 4.90896E-05
 -1       454 4.33298E-03-1.17939E-03-1.36282E-03 8.88410E-04-2.86027E-04-4.77304E-04
 -1       455 2.51257E-03-4.84799E-04-7.18574E-04 1.90503E-04 1.48140E-04-3.07442E-04
 -1       456 1.04576E-03 9.56053E-05-2.70332E-04 3.86120E-05 2.37765E-04-2.13792E-04
 -1       457 4.33383E-04-8.78603E-05-4.21872E-05-6.06513E-05 8.82366E-05-1.10897E-04
 -1       458-4.97910E-05-3.69850E-04 3.49813E-05 1.13692E-04-1.97175E-04-2.16528E-04
 -1       459-1.22411E-03-1.51497E-04 4.00532E-04 5.11115E-04-1.92753E-04-4.53822E-04
 -1       460-3.04509E-03 6.45426E-04 8.79439E-04 8.72454E-04-1.60262E-04-4.17725E-04
 -1       461-3.08800E-03-4.15310E-04 1.69420E-03-4.28871E-04 1.11594E-03-4.76624E-05
 -1       462 2.68795E-04-3.37688E-03 1.58337E-03-3.38831E-04-4.32208E-04-5.71782E-04
 -1       463 9.51422E-04-4.06366E-03 1.26721E-03 5.20640E-04 1.22136E-04 1.02371E-04
 -1       464 8.06986E-04-3.02652E-03 9.64891E-04 3.94020E-04 2.14246E-04 2.67719E-05
 -1       465 3.63701E-04-1.43431E-03 4.33025E-04 1.27401E-04 1.07020E-04 2.95782E-06
 -1       466-7.42667E-05 1.72466E-04-1.17491E-05 3.64121E-04 1.82220E-04-1.90987E-05
 -1       467-2.76083E-04 1.42271E-03-4.74424E-04 4.15549E-04 2.08191E-04-1.93592E-05
 -1       468-3.02243E-04 1.38213E-03-9.27924E-04-2.05499E-04 2.17342E-04 4.97031E-04
 -1       469-5.54803E-04-3.56570E-03 1.86725E-03-2.17826E-05 8.46671E-05 5.88969E-04
 -1       470 1.10952E-03-3.93684E-03 1.24011E-03 4.46917E-04-2.53618E-04-9.71503E-06
 -1       471 6.55454E-04-2.77622E-03 8.98320E-04 4.92155E-04-2.56813E-04 7.45408E-05
 -1       472 3.95734E-04-1.39091E-03 4.34986E-04 3.29325E-04-1.86463E-04-2.44688E-06
 -1       473 1.81064E-04-4.15017E-05-2.66961E-05 4.62989E-04-2.80884E-04-1.03395E-04
 -1       474-3.40508E-04 1.26225E-03-3.93531E-04 4.50996E-04-2.42630E-04 6.58987E-06
 -1       475 3.99029E-04 1.53569E-03-7.70636E-04 1.14832E-04 5.55699E-05-1.70806E-04
 -1       476-1.96184E-03 2.75494E-04-4.63784E-05-5.78502E-04-2.37971E-04-4.17807E-05
 -1       477 3.56120E-04 4.61803E-04-8.49612E-04-7.55264E-04-1.81726E-06 1.91068E-04
 -1       478-4.27673E-03 1.74840E-03 9.32337E-04-7.42985E-04 7.76733E-05 7.86563E-04
 -1       479-5.27166E-03 1.70416E-03 1.45390E-03 1.46002E-04 2.12923E-04-2.64923E-04
 -1       480-3.55948E-03 5.89638E-04 1.08158E-03 8.84271E-04-2.04069E-04-4.68868E-04
 -1       481-1.69723E-03-1.38277E-04 5.37648E-04 5.04814E-04-3.22471E-04-2.14357E-04
 -1       482-8.77892E-04-2.14385E-04 3.22081E-04 1.27793E-04-3.76181E-04-9.20793E-05
 -1       483-3.89879E-04 7.47329E-05 1.76796E-04 3.07363E-04 4.74432E-05-2.11047E-04
 -1       484 7.33522E-04-3.82434E-04-1.06479E-04 7.61830E-04 1.88408E-04-4.21413E-04
 -1       485 2.41983E-03-3.06334E-04-5.10424E-04 7.35043E-04-1.45034E-04-3.51762E-04
 -1       486 3.69105E-03-1.67289E-03-6.81203E-04-7.14508E-04-4.81726E-04 4.92353E-04
 -1       487 1.81026E-03-6.84213E-04-4.72477E-04-1.76708E-03-6.32477E-05 1.21144E-03
 -1       488-4.66324E-03 1.46987E-03 9.79931E-04-9.38098E-04-2.42147E-04-4.39158E-04
 -1       489-4.89872E-03 2.33852E-03 1.42769E-03 6.16300E-04-6.83228E-04 2.82659E-05
 -1       490-2.77269E-03 1.73802E-03 8.92893E-04 5.21382E-04-5.69444E-04 4.21619E-04
 -1       491-1.25245E-03 6.69804E-04 3.80097E-04 1.30840E-04-2.04303E-04 2.48668E-04
 -1       492-6.79177E-04 2.04375E-04 2.37529E-04-5.80416E-05-4.09247E-05 1.57535E-04
 -1       493 1.13752E-04-4.13726E-04 1.02713E-05 3.08024E-04 2.31619E-04 3.67236E-04
 -1       494 1.82280E-03-1.28991E-03-4.55745E-04 8.35259E-04 4.87390E-04 6.29680E-04
 -1       495 3.61622E-03-2.07071E-03-7.23485E-04 1.89014E-04 2.21491E-04 4.19109E-05
 -1       496 1.85070E-03-4.95897E-04-4.14418E-04-1.99223E-03-4.60840E-05-1.43086E-03
 -1       497-1.43058E-03 5.46771E-04 4.45941E-04-1.40440E-03-9.81407E-05 7.20836E-04
 -1       498-3.37856E-03 1.24828E-03 7.95343E-04-9.30087E-04-1.43297E-04 5.56976E-04
 -1       499-4.31805E-03 1.21669E-03 1.17490E-03-3.90282E-04-1.43994E-04 2.20429E-04
 -1       500-5.19034E-03 1.47382E-03 1.46266E-03-3.35200E-04-1.14267E-04 2.13082E-04
 -1       501-6.16640E-03 1.85021E-03 1.76664E-03-4.03649E-04-8.24327E-06 2.49944E-04
 -1       502-6.94558E-03 2.04725E-03 2.00563E-03-3.98641E-04 1.01780E-04 2.18910E-04
 -1       503-7.34026E-03 2.59492E-03 1.94245E-03 2.58177E-04 1.62345E-04-2.73853E-04
 -1       504-6.58359E-03 2.16762E-03 1.80882E-03 1.86028E-03-8.95477E-05-1.46359E-03
 -1       505-5.10258E-03 1.14993E-03 1.73296E-03 6.64473E-04-3.38235E-04-5.30734E-04
 -1       506-5.44534E-03 1.64939E-03 1.67888E-03-3.39957E-04-1.23631E-04 2.45158E-04
 -1       507-6.31675E-03 2.03101E-03 1.86944E-03-4.26146E-04-4.83174E-05 2.93794E-04
 -1       508-7.27218E-03 2.33563E-03 2.15420E-03-2.60233E-04 5.81070E-05 2.13220E-04
 -1       509-8.04286E-03 2.56769E-03 2.40572E-03-3.77069E-04 2.85573E-05 3.05315E-04
 -1       510-8.95676E-03 2.94212E-03 2.69491E-03-5.92142E-04-1.26585E-04 6.80072E-04
 -1       511-1.16312E-02 3.39194E-03 3.65004E-03-1.39014E-03 5.59100E-04 1.41042E-03
 -1       512-9.00567E-03 5.12851E-04 3.55139E-03-1.41320E-03-8.56863E-04 8.00359E-05
 -1       513-2.13606E-03-1.28156E-04 1.09734E-03 5.12558E-04-9.33839E-05-6.95064E-05
 -1       514 8.71638E-05 1.69896E-06-1.98879E-06-5.37498E-05 4.19612E-05-8.63769E-05
 -1       515-3.53140E-06 1.79712E-06 1.04724E-05 3.18134E-07 8.22261E-06-1.18721E-05
 -1       516 1.01599E-05 1.55742E-06-6.28418E-06 1.84248E-05-7.48745E-06 1.68940E-07
 -1       517 5.65121E-06 1.38662E-05-2.93491E-05 1.32177E-04-3.69741E-05 2.28218E-05
 -1       518 8.65176E-04 2.33582E-05-4.56658E-04 5.62297E-04-2.36254E-04 4.76028E-05
 -1       519 9.19080E-05-2.32819E-04-1.05396E-04-3.32286E-04 7.94795E-05 3.96017E-04
 -1       520-8.26133E-04 2.14653E-03-5.29740E-04-2.10528E-03-1.33633E-03-2.44507E-04
 -1       521-1.65446E-03 3.96683E-03-8.36789E-04 1.61381E-04 5.89604E-05 1.01426E-04
 -1       522-9.72352E-04 2.87944E-03-7.89335E-04 2.93112E-04 2.12665E-04-2.12313E-05
 -1       523-7.09770E-04 1.47855E-03-3.41383E-04 4.42047E-04 2.41239E-04 2.36091E-05
 -1       524-9.16318E-05 2.95423E-04-5.59131E-05 4.33596E-04 2.21795E-04 4.82572E-05
 -1       525 2.61599E-04-1.16206E-03 3.84002E-04 4.38416E-04 2.41248E-04-2.85539E-05
 -1       526 8.23153E-04-2.22809E-03 5.06246E-04 2.16842E-04 1.27331E-04-2.21449E-05
 -1       527 4.72286E-04-1.36387E-03 1.28434E-04-5.14999E-04-5.31361E-04-3.34064E-05
 -1       528-1.33333E-03 4.79858E-04 4.29875E-04-9.28669E-04 1.34075E-04-7.70727E-04
 -1       529-3.44902E-03 1.11124E-03 8.52213E-04-3.23820E-04 2.46773E-05-2.90131E-04
 -1       530-4.61470E-03 1.43772E-03 1.30941E-03-3.42959E-04-1.18078E-05-2.04501E-04
 -1       531-5.62245E-03 1.72487E-03 1.62850E-03-4.27300E-04-9.63328E-06-2.65833E-04
 -1       532-6.54554E-03 1.98379E-03 1.91253E-03-4.30541E-04-2.73557E-05-2.57727E-04
 -1       533-7.26594E-03 2.35604E-03 1.94394E-03-1.65126E-04-1.23776E-04-9.51186E-05
 -1       534-6.88839E-03 2.71572E-03 2.36133E-03 1.61391E-03-2.55763E-04 1.42697E-03
 -1       535-5.31667E-03 1.06503E-03 1.79215E-03 9.08557E-04 1.46241E-04 6.67216E-04
 -1       536-5.34788E-03 1.56940E-03 1.65143E-03-2.86003E-04 1.12510E-04-1.41670E-04
 -1       537-6.17384E-03 1.89793E-03 1.82432E-03-4.59630E-04-2.45783E-05-2.65129E-04
 -1       538-7.16732E-03 2.22755E-03 2.12203E-03-3.43179E-04-5.80027E-05-1.89762E-04
 -1       539-8.05491E-03 2.49188E-03 2.44649E-03-3.59033E-04-1.67008E-06-1.78147E-04
 -1       540-9.17851E-03 2.63640E-03 2.98961E-03-7.28509E-04 9.77134E-05-5.21382E-04
 -1       541-1.19125E-02 3.35846E-03 3.91647E-03-1.81947E-03 3.33149E-05-5.02989E-04
 -1       542-5.94057E-03 3.54354E-04 2.60415E-03-6.76648E-04-3.75297E-05-8.24075E-04
 -1       543-8.91018E-04-6.07238E-05 7.68179E-04 2.19171E-04 2.64262E-04 5.44581E-05
 -1       544 1.30643E-04-1.53483E-05-5.52077E-05-1.49037E-04-5.46456E-05 8.53011E-05
 -1       545-8.82777E-06 2.04014E-06 8.36681E-07-1.97989E-05-9.34948E-06 3.00143E-06
 -1       546 1.24185E-05 1.99219E-06-2.86639E-06 2.48633E-05 1.24854E-05 4.58976E-06
 -1       547-1.06489E-06 1.86022E-05-4.62970E-05 1.40141E-04 7.25468E-05-5.55965E-05
 -1       548 1.07625E-03 1.15279E-05-5.07184E-04 6.18638E-04 2.77368E-04-1.69085E-05
 -1       549-5.35694E-05-2.45416E-04-4.48676E-05-4.28558E-04-1.25771E-04 3.71230E-04
 -1       550-6.50609E-04 2.02289E-03-3.45699E-04-2.14317E-03 1.37940E-03-2.49122E-05
 -1       551-1.93090E-03 4.05526E-03-6.54063E-04-1.82900E-04 3.28648E-04 1.22902E-04
 -1       552-1.13569E-03 3.40600E-03-8.55988E-04 4.36423E-04-2.56903E-04-7.04731E-05
 -1       553-6.96142E-04 2.47170E-03-7.16444E-04 3.88981E-04-2.52629E-04 4.79785E-06
 -1       554-4.39151E-04 8.99865E-04-2.27291E-04 1.46826E-04-7.92088E-05 3.01081E-05
 -1       555 5.80189E-05-5.91010E-04 2.31392E-04 2.85245E-04-2.19851E-04 7.07205E-05
 -1       556 4.33371E-04-1.72137E-03 4.79178E-04 4.24934E-04-2.03128E-04 2.19270E-05
 -1       557 1.17902E-03-2.39301E-03 4.62858E-04-1.52791E-04 1.23647E-04-4.45806E-05
 -1       558 4.05673E-04-1.17651E-03 2.91214E-04-1.19332E-03 8.45210E-04-1.67064E-04
 -1       559-6.45303E-03 2.73168E-03 1.57829E-04 8.11936E-05 5.91883E-04 4.14461E-04
 -1       560-3.67603E-04-1.90732E-04 5.74259E-04-3.78051E-04-2.79802E-04-1.51707E-04
 -1       561 2.69434E-09-2.91166E-09-2.89451E-09-1.55116E-10-5.86589E-09 7.39770E-11
 -1       562 2.46068E-09-4.12255E-10-6.70435E-09 7.88039E-10-2.54194E-09 3.59027E-10
 -1       563-2.73588E-09 5.48039E-09 1.92371E-09-1.91292E-10 4.83263E-09-1.21036E-10
 -1       564-1.48067E-09-5.26814E-09 8.71508E-09 3.60482E-11 4.86890E-10-2.02105E-10
 -1       565-6.77345E-10 7.15486E-10 6.47138E-10-8.85202E-11-8.18981E-10-4.90097E-11
 -1       566-2.54285E-09-4.70280E-09 9.27793E-09 3.33473E-10 8.54211E-10-6.84639E-11
 -1       567-1.20322E-09 4.35969E-09 1.46247E-09-1.02407E-09 3.64785E-09-8.20533E-10
 -1       568 1.40167E-09 1.97410E-09-6.54988E-09 3.61184E-10-1.61824E-09 7.51119E-10
 -1       569 2.11285E-03-1.30542E-02 9.65067E-04 7.50241E-03 7.68118E-04-6.14008E-04
 -1       570-1.72753E-03 4.55843E-04 1.63073E-04 9.59427E-04 4.20350E-04 1.40178E-04
 -1       571 2.28853E-06-1.19577E-04 2.03223E-05 2.18205E-05 8.67504E-05-2.57272E-06
 -1       572 1.59006E-06 3.63077E-07-3.13902E-06-1.17087E-07-1.67407E-06 3.19290E-08
 -1       573-1.18571E-07 1.77532E-07-4.08351E-08 1.48461E-07-1.60959E-06 6.51515E-10
 -1       574 3.33630E-08 6.75687E-08-2.25750E-08-5.37679E-08-1.08347E-07-3.38763E-08
 -1       575-2.83256E-09 2.79527E-08-2.99734E-09-4.77443E-09-2.24034E-08-1.63568E-09
 -1       576-1.53392E-09 4.94609E-09-1.00128E-09-1.44882E-10-3.50744E-09 3.72019E-11
 -1       577 1.38066E-02-1.42682E-02 8.92892E-04 1.15621E-03 7.01330E-04 1.78197E-03
 -1       578-1.16107E-03 3.98620E-04 5.17724E-04 6.06712E-04 2.42038E-04-1.62139E-04
 -1       579 3.12897E-06 3.47157E-05-7.22811E-06 3.50500E-06 2.65832E-05 9.90159E-06
 -1       580-1.36094E-06 2.12594E-06 1.28291E-06 2.28783E-07 2.34075E-06 2.68079E-07
 -1       581-5.12513E-07 7.47527E-07 3.58376E-07 3.13880E-07 1.20076E-06 1.95424E-07
 -1       582-1.48995E-07 3.57316E-07-2.89862E-08 9.22784E-08 3.86051E-07 5.90053E-08
 -1       583-3.75604E-08 1.01127E-07-1.68335E-08 1.06896E-08 6.05018E-08 1.09975E-08
 -1       584 4.38451E-10-7.13656E-10 1.38665E-09-1.42828E-10 2.48981E-09-7.68934E-10
 -1       585-9.80812E-03-1.43689E-02 1.52749E-03-9.68089E-03-1.11112E-04-2.21506E-03
 -1       586-8.03371E-03-1.53483E-02 1.85330E-03-3.02209E-03-5.48415E-04 4.48536E-04
 -1       587-9.29690E-03-1.22930E-02 2.08515E-03-6.71546E-03-1.02858E-03 2.88067E-03
 -1       588-8.24228E-03 1.67347E-02 2.72282E-03 6.90678E-03 3.07080E-03 2.30177E-03
 -1       589 1.52571E-03-1.15163E-03-1.58645E-04 1.91265E-05-6.05826E-04-2.74290E-04
 -1       590 4.81875E-06 5.41312E-05 8.28229E-06 1.80217E-05 2.72054E-05 2.43887E-05
 -1       591-3.45886E-06 1.64543E-06 3.15276E-07 1.83666E-06 1.44460E-06-2.53388E-06
 -1       592-6.62724E-07 8.04825E-07 6.63051E-07 1.23009E-06 1.52394E-06 6.65376E-07
 -1       593-1.15966E-07 3.92244E-07 1.70458E-08-1.68424E-07 4.44031E-07-6.23152E-08
 -1       594-3.26107E-08 1.06057E-07-1.01700E-08 9.94918E-09 7.02429E-08 2.98915E-09
 -1       595 8.10750E-10 1.03380E-09-3.55153E-10 7.21506E-10 7.03856E-10 4.94507E-10
 -1       596 6.15870E-03 1.51772E-02-8.20290E-04-2.89496E-03 1.01528E-03 9.03011E-04
 -1       597 2.99279E-04-4.86513E-04-6.78391E-05-1.79712E-04-8.46399E-05 3.55271E-05
 -1       598 7.67446E-06-6.03224E-05 2.03207E-05 1.27645E-05 8.58348E-05 6.67163E-06
 -1       599 2.38860E-06-9.02716E-07-4.60975E-06 5.61292E-07-2.09389E-06 9.42727E-07
 -1       600 8.77867E-09 3.59282E-07-4.16553E-07 1.01152E-06-1.99986E-06 5.87955E-07
 -1       601-4.03023E-08 1.31062E-07-1.86576E-08 2.90670E-09-9.37576E-08 7.90225E-10
 -1       602-4.48624E-09 2.87201E-08-5.02883E-09 1.11256E-09-2.27304E-08 5.54333E-10
 -1       603-1.39491E-09 4.32052E-09-1.00045E-09-1.69193E-10-3.70594E-09 9.37046E-11
 -1       604-3.03877E-02 3.36493E-02 3.42990E-03 3.52895E-03 1.79911E-03-6.52179E-05
 -1       605-1.73146E-02 1.89242E-02 2.48415E-03 6.07856E-03 1.44416E-04-3.17517E-04
 -1       606-2.98638E-02 3.06230E-02 4.10600E-03 1.55536E-03-2.22508E-03 9.46633E-04
 -1       607-3.84713E-02 1.47255E-02 4.54758E-03-2.58494E-03-3.34901E-03-1.44215E-03
 -1       608 4.54798E-03-1.25007E-03-1.33923E-03-3.64236E-04 1.86280E-04-2.12863E-04
 -1       609 5.73188E-03-1.72992E-03-1.64078E-03-3.42270E-04 2.18920E-05-1.59026E-04
 -1       610 6.81891E-03-2.12528E-03-2.00235E-03-3.40295E-04 2.99173E-05-1.01392E-04
 -1       611 8.01383E-03-2.45947E-03-2.36387E-03-3.47839E-04 3.18637E-05-1.51274E-04
 -1       612 8.95442E-03-2.84655E-03-2.55508E-03-2.48023E-04 4.64443E-06-2.08416E-04
 -1       613 9.54039E-03-2.76774E-03-2.92990E-03-4.02203E-04 8.25381E-05-3.84662E-04
 -1       614 8.97022E-03-2.50318E-03-3.05140E-03-9.62204E-04-6.11773E-05-1.23503E-03
 -1       615 2.02944E-02-6.89492E-03-3.32053E-03-6.68868E-03 1.91107E-03 4.54911E-04
 -1       616 1.81207E-02-6.14499E-03-3.07326E-04-1.08231E-02 5.70548E-04-5.45930E-03
 -1       617 9.13708E-03-2.66179E-03-2.80681E-03-9.65741E-04 6.46221E-05 1.56521E-03
 -1       618 9.38095E-03-2.59670E-03-2.98892E-03-5.89060E-04-3.84615E-05 6.23503E-04
 -1       619 8.89481E-03-2.67880E-03-2.60076E-03-3.51636E-04-9.52639E-05 1.92778E-04
 -1       620 7.93516E-03-2.33553E-03-2.31283E-03-3.91265E-04-6.84668E-06 1.84716E-04
 -1       621 6.72286E-03-1.95786E-03-1.92589E-03-3.21788E-04 7.58937E-06 1.80896E-04
 -1       622 5.70432E-03-1.69307E-03-1.55048E-03-3.48157E-04-9.03648E-06 2.26463E-04
 -1       623 4.40127E-03-7.66527E-04-1.41360E-03-4.82390E-04-1.11831E-04 3.50033E-04
 -1       624 2.01853E-03 8.68337E-04-1.16887E-03 1.18078E-03 1.47860E-04-5.55702E-05
 -1       625-3.90820E-02 1.55588E-02 4.89927E-03-9.13648E-03 3.74862E-04-1.12994E-03
 -1       626-2.68046E-02 8.35657E-03 7.09383E-03-3.75784E-03 2.41567E-04 4.12650E-04
 -1       627-2.14190E-02 6.40127E-03 6.24670E-03-9.97564E-04 1.71475E-04-1.63366E-03
 -1       628-2.16344E-02 6.29225E-03 6.65597E-03-4.71052E-04 7.04571E-06-3.30399E-04
 -1       629-2.06767E-02 6.05954E-03 6.18705E-03-3.45756E-04 1.68991E-06-1.97326E-04
 -1       630-1.94255E-02 5.70112E-03 5.83942E-03-2.83295E-04 1.30712E-04-1.08753E-04
 -1       631-1.83322E-02 5.56279E-03 5.45836E-03-3.31016E-04 7.08217E-06-2.02128E-04
 -1       632-1.70801E-02 5.29026E-03 4.74887E-03-7.40640E-04-4.62702E-04-7.90722E-04
 -1       633-8.92340E-03 2.24110E-03 3.07949E-03 2.88927E-03-2.28493E-04 2.42115E-05
 -1       634-1.73134E-02 4.50067E-03 4.58858E-03-9.70236E-04 5.04948E-04 1.93923E-03
 -1       635-1.78712E-02 5.58410E-03 5.11796E-03-3.40392E-04 4.62592E-05 1.96889E-04
 -1       636-1.89315E-02 5.68423E-03 5.72834E-03-3.13491E-04-2.34686E-05 1.07867E-04
 -1       637-1.98189E-02 6.03618E-03 5.96819E-03-1.84034E-04-3.48786E-05 1.91111E-04
 -1       638-2.08039E-02 6.27606E-03 6.22456E-03-2.49454E-04 8.67836E-06 2.00806E-04
 -1       639-2.14860E-02 6.42296E-03 6.49879E-03-4.02149E-04 1.18391E-04 2.29542E-04
 -1       640-2.21588E-02 6.45666E-03 6.83960E-03-6.74751E-04 7.60707E-05 4.68348E-04
 -1       641-2.10707E-02 6.28950E-03 6.45926E-03-1.37820E-03-8.05740E-05 1.34529E-03
 -1       642-2.45893E-02 8.13945E-03 5.89475E-03-2.76441E-03 5.24387E-04-2.84009E-04
 -1       643 5.49163E-04-5.52971E-03 1.79647E-03 3.90981E-04 2.65106E-04 4.15619E-04
 -1       644 1.60785E-03-4.77146E-03 1.31138E-03 3.63858E-04-1.40270E-04-1.59194E-05
 -1       645 8.66519E-04-3.33328E-03 9.50936E-04 3.42427E-04-1.58776E-04 1.55401E-05
 -1       646 5.52579E-04-1.68005E-03 5.15843E-04 1.59938E-04-1.24349E-04 2.80914E-05
 -1       647-1.84538E-05-3.22892E-05 3.50248E-05 2.76736E-04-1.81352E-04-7.42351E-05
 -1       648-5.58417E-04 1.56857E-03-3.98069E-04 3.49187E-04-1.35911E-04 2.57278E-06
 -1       649-3.66801E-04 2.45617E-03-8.46095E-04 2.23307E-04-9.40430E-05-2.84376E-04
 -1       650 1.13359E-05 2.46310E-03-9.21386E-04 2.75062E-04 1.17864E-04 3.22359E-04
 -1       651-6.40128E-04 1.68889E-03-3.77210E-04 2.53638E-04 5.94894E-05-1.50216E-05
 -1       652-1.21127E-04 2.44689E-04 8.21739E-06 2.52055E-04 1.18766E-04 1.53825E-05
 -1       653 5.82379E-04-1.69984E-03 4.66329E-04 1.06045E-04 4.65462E-05 1.74759E-06
 -1       654 1.14882E-03-3.64171E-03 1.01114E-03 3.36195E-04 6.74411E-05 2.88667E-05
 -1       655 1.72049E-03-4.79744E-03 1.12544E-03 2.11445E-04-1.41922E-05 5.01483E-05
 -1       656 5.95381E-04-5.83192E-03 1.78092E-03 3.60620E-04-3.80295E-04-6.02259E-04
 -1       657-2.32812E-03-2.43010E-03 1.78264E-03 1.86151E-03 8.90313E-05-9.26828E-05
 -1       658 6.71527E-03-1.90982E-03-1.74154E-03 4.18201E-04-3.55922E-04 1.12789E-04
 -1       659 4.72729E-03-8.85920E-04-1.44602E-03 7.70046E-04 3.23643E-05-3.53033E-04
 -1       660 2.39006E-03-1.15749E-04-7.51062E-04 5.00923E-04 1.89778E-04-1.71513E-04
 -1       661 9.37569E-04-1.67744E-04-2.68785E-04 1.74183E-04 5.73040E-05 2.95179E-05
 -1       662 3.25438E-04-8.38803E-05-8.07199E-05 1.03233E-04-7.42898E-06 1.64203E-05
 -1       663-7.90549E-04-2.15861E-04 3.20189E-04 3.50860E-04-1.73366E-04-1.12426E-04
 -1       664-3.07695E-03 5.68911E-04 8.15394E-04 7.52298E-04-1.11613E-04-1.39888E-04
 -1       665-5.08467E-03 6.67038E-04 1.40912E-03 5.16689E-04 5.73899E-04 3.34992E-04
 -1       666-4.88943E-03 8.93122E-04 1.45862E-03 4.89839E-04-3.62666E-04-2.93372E-05
 -1       667-2.70689E-03 8.47593E-04 7.46227E-04 8.27417E-04 4.20425E-05-1.85504E-04
 -1       668-5.39334E-04 3.36271E-04 1.49708E-04 2.39373E-04 1.30812E-04-2.27199E-04
 -1       669 3.87056E-04-3.28482E-06-1.40056E-04 6.00353E-05-3.28928E-05-6.34272E-05
 -1       670 9.63468E-04-3.98978E-04-3.40472E-04 4.15003E-05 2.80085E-06 7.48695E-05
 -1       671 2.48310E-03-7.03189E-04-7.77805E-04 2.92080E-04-5.19951E-05 1.92856E-04
 -1       672 4.88153E-03-1.30698E-03-1.33550E-03 4.36986E-04-1.04810E-05 2.82642E-04
 -1       673 6.60593E-03-1.37053E-03-1.70027E-03 3.37762E-04 5.40524E-04-4.22170E-04
 -1       674 3.74530E-03 1.53832E-04-1.13727E-03 1.99658E-03 7.20698E-05-7.43366E-05
 -1       675-2.66818E-03 9.14941E-04 1.19270E-03 1.79530E-03 2.46837E-04-1.35880E-03
 -1       676 1.88782E-04 5.43092E-04-3.36494E-04-3.64257E-04-2.16775E-04 1.94528E-04
 -1       677 1.58677E-05 5.70498E-05-4.49328E-05-9.23941E-06-1.15461E-05-1.12334E-05
 -1       678-4.27921E-06 1.88888E-05-6.55436E-06 4.25062E-06-1.35614E-06-2.61415E-06
 -1       679-2.74604E-05 6.15936E-05-1.48371E-05 1.57284E-05 1.30647E-05 3.95176E-06
 -1       680-2.13411E-04 2.28841E-04-5.20076E-05 6.80959E-05-1.20498E-05-8.23835E-05
 -1       681 6.37236E-04 8.67861E-04-6.53226E-04 9.32722E-04 4.69683E-04 5.85217E-04
 -1       682 7.79840E-04 8.98477E-04-8.53415E-04 1.29049E-03-5.22867E-04-7.57678E-04
 -1       683-3.04985E-04 2.13702E-04 1.38144E-04-1.90383E-05 7.32132E-05-1.05226E-04
 -1       684-2.62003E-05 8.07003E-05-1.45712E-05 2.59590E-05-2.28155E-05-5.71898E-06
 -1       685-2.76420E-06 2.20342E-05-1.19484E-05-8.74630E-07 4.40332E-06 5.93753E-07
 -1       686 8.79344E-05 9.19800E-05-1.34090E-04-5.05026E-05 8.71343E-07 3.26121E-05
 -1       687 1.79251E-04 5.19062E-04-5.51922E-04-5.14246E-04 3.40627E-04 1.52465E-04
 -1       688-2.86767E-03 9.16286E-04 1.04766E-03 1.56721E-03-5.78152E-04 1.40181E-03
 -1       689-2.60518E-03 3.52117E-05-2.77207E-09-8.12315E-04-4.37085E-05-9.53620E-06
 -1       690 6.36507E-04 3.57384E-04-1.67863E-03-7.92703E-04-9.95372E-05 1.88678E-04
 -1       691-5.03825E-03 1.56808E-03 1.11853E-03-1.00616E-03 1.56837E-04 3.84826E-04
 -1       692-6.41444E-03 1.80861E-03 1.78278E-03 4.88361E-04 7.25047E-05-1.57124E-04
 -1       693-3.79532E-03 6.84618E-04 1.18976E-03 7.43006E-04-1.88620E-04-2.16229E-04
 -1       694-1.65463E-03 1.20098E-04 5.37962E-04 2.04966E-04-1.97899E-04-1.36831E-04
 -1       695-8.37495E-04 1.50880E-04 2.30965E-04 1.14334E-04-9.77151E-05-8.34625E-05
 -1       696 9.76077E-05 2.58756E-05-6.32168E-05 2.15911E-04 6.58785E-05-2.86969E-04
 -1       697 2.16653E-03-1.53430E-04-7.50142E-04 3.15456E-04 1.93228E-04-4.15983E-04
 -1       698 4.48210E-03-8.07071E-04-1.39668E-03 1.29271E-04 1.13482E-04 5.14172E-05
 -1       699 2.75027E-03-3.47919E-04-8.97945E-04-1.62491E-03 3.27942E-04 8.55663E-04
 -1       700-4.92221E-03 1.67293E-03 1.00251E-03-5.54775E-04-4.98546E-04-5.49497E-04
 -1       701-6.64392E-03 2.10222E-03 1.78161E-03-6.15907E-05-1.83489E-05 2.49937E-04
 -1       702-4.18997E-03 1.87003E-03 1.12488E-03 5.86266E-04-2.99530E-04 1.86355E-04
 -1       703-2.03727E-03 1.39958E-03 5.54193E-04 5.06727E-04-2.65179E-04 6.92498E-05
 -1       704-1.05659E-03 6.63862E-04 2.58200E-04 1.68139E-04-1.54601E-04-3.99083E-05
 -1       705-4.81266E-04 2.37828E-05 7.55492E-05 2.40678E-04 1.12005E-04-7.75678E-06
 -1       706 8.77484E-04-5.73787E-04-3.10823E-04 5.97181E-04 1.69230E-04 1.85028E-04
 -1       707 3.14809E-03-1.27986E-03-9.21449E-04 7.56502E-04 2.22692E-04 3.63052E-04
 -1       708 4.90090E-03-9.38680E-04-1.39993E-03-6.43136E-04-4.29917E-05-1.84189E-04
 -1       709 1.66363E-03-1.31957E-04-8.17055E-04-1.34930E-03 2.93271E-04-1.06058E-03
 -1       710-1.36615E-03 6.64683E-04 5.55943E-04-9.91201E-04-5.01804E-05 5.83446E-04
 -1       711-3.99975E-03 1.01522E-03 1.18256E-03-5.98837E-04-5.80609E-06 4.68871E-04
 -1       712-5.17195E-03 1.44112E-03 1.62538E-03-2.02024E-04-1.65937E-05 1.36490E-04
 -1       713-6.24089E-03 1.58723E-03 1.97173E-03-2.73815E-04-1.14895E-04 1.13683E-04
 -1       714-7.34794E-03 1.91260E-03 2.28863E-03-3.34240E-04-5.30216E-05 1.66377E-04
 -1       715-8.41719E-03 2.39181E-03 2.54459E-03-3.44091E-04 6.18422E-05 1.71513E-04
 -1       716-9.05335E-03 2.88444E-03 2.50822E-03 2.92768E-05 8.57252E-05-1.17450E-05
 -1       717-8.40222E-03 2.84811E-03 2.16142E-03 1.07374E-03-4.65760E-05-9.53875E-04
 -1       718-5.15181E-03 1.84724E-03 1.63123E-03 1.43393E-03 1.17235E-04-9.53490E-04
 -1       719-3.26876E-03 7.24086E-04 1.25052E-03 3.19648E-05-2.93198E-05-4.25239E-05
 -1       720-4.02610E-03 1.22076E-03 1.28844E-03-3.62011E-04-4.04925E-06 1.42750E-04
 -1       721-5.18336E-03 1.66863E-03 1.55748E-03-3.47735E-04 2.04248E-05 1.22248E-04
 -1       722-6.19402E-03 1.96230E-03 1.87216E-03-3.00735E-04 5.11792E-05 8.69885E-05
 -1       723-7.13349E-03 2.17022E-03 2.17807E-03-2.99251E-04-1.56974E-04 2.89519E-04
 -1       724-8.54105E-03 3.15643E-03 2.24474E-03-9.25926E-04-3.68558E-04 6.30578E-04
 -1       725-1.12597E-02 3.29827E-03 3.22676E-03-8.63530E-04 1.34805E-04-1.74660E-04
 -1       726-2.93625E-05 2.34322E-03-1.06405E-03-1.68764E-03-8.40550E-04-4.91403E-05
 -1       727-1.64824E-03 5.21196E-03-1.49721E-03 5.32583E-05 5.03147E-05 5.92307E-05
 -1       728-1.06450E-03 3.75306E-03-1.20517E-03 4.21997E-04 1.99861E-04 2.08289E-05
 -1       729-6.96610E-04 1.96341E-03-5.67103E-04 3.86411E-04 2.11378E-04-1.09183E-05
 -1       730-3.79236E-04 4.92172E-04-1.16194E-04 2.51017E-04 1.50717E-04 2.21676E-05
 -1       731 4.35729E-04-1.36222E-03 3.75215E-04 4.29138E-04 1.94470E-04-6.07249E-05
 -1       732 9.46365E-04-2.81504E-03 7.49856E-04 2.45803E-04 1.30830E-04-4.35708E-05
 -1       733 6.99835E-04-1.61656E-03 5.05374E-04-8.52713E-04-4.66045E-04 1.47395E-04
 -1       734-5.43311E-03-5.38276E-09 1.14316E-03-9.32676E-04 2.06864E-04-2.75439E-04
 -1       735-1.42034E-03 9.33107E-10 6.16313E-04 5.36914E-04-7.21350E-05-3.23926E-04
 -1       736 1.34092E-04-1.25225E-10-4.48477E-06-9.14840E-05 2.47933E-05-8.05589E-05
 -1       737-4.51252E-06-3.46418E-11 2.26908E-06-1.61133E-05-1.48763E-06-9.26494E-06
 -1       738 1.11081E-05-4.04865E-11-5.37676E-06 1.86727E-05-2.88130E-06 3.47826E-06
 -1       739 2.58890E-05-3.62792E-10-1.84791E-05 1.44699E-04-2.23834E-05 3.05522E-05
 -1       740 1.27200E-03-1.10739E-09-3.60437E-04 6.56088E-04-2.72364E-04 1.12675E-04
 -1       741-4.79103E-04 3.50091E-09-1.50368E-04-6.71418E-04-4.11730E-05 2.26300E-04
 -1       742-1.49538E-03 7.07550E-05 7.22964E-04-1.14688E-03 5.22730E-05-5.35953E-04
 -1       743-4.44830E-03 1.33421E-03 1.37176E-03-4.76869E-04 1.95370E-05-2.73213E-04
 -1       744-5.79095E-03 1.67692E-03 1.80618E-03-2.93197E-04-2.22837E-05-1.31031E-04
 -1       745-7.02015E-03 2.10540E-03 2.12683E-03-3.65935E-04-5.19713E-05-1.53531E-04
 -1       746-8.16068E-03 2.46981E-03 2.42406E-03-3.66598E-04-5.26533E-05-1.37333E-04
 -1       747-9.04822E-03 2.83714E-03 2.57831E-03-2.09196E-04-8.76172E-05-3.99818E-05
 -1       748-8.77538E-03 2.77578E-03 2.41416E-03 8.90454E-04 8.61086E-05 7.03520E-04
 -1       749-5.63173E-03 1.31467E-03 1.81109E-03 8.63683E-04-1.45412E-04 1.08123E-03
 -1       750-3.53550E-03 7.26304E-04 1.43143E-03 3.49877E-04-2.38826E-06 5.48182E-04
 -1       751-3.67725E-03 1.08544E-03 1.21900E-03-3.33549E-04 6.05320E-05-6.19812E-05
 -1       752-4.80839E-03 1.51872E-03 1.45560E-03-4.08338E-04-4.77863E-05-1.38710E-04
 -1       753-5.97243E-03 1.88936E-03 1.78809E-03-2.77636E-04-6.82208E-05-1.09284E-04
 -1       754-7.06928E-03 2.16451E-03 2.10912E-03-2.98364E-04 2.95137E-05-9.42579E-05
 -1       755-8.54415E-03 2.30476E-03 2.78643E-03-4.42514E-04-1.65265E-04-3.73477E-04
 -1       756-1.15004E-02 3.25008E-03 3.37718E-03-1.80845E-03-1.13026E-05-4.75387E-04
 -1       757-1.52783E-04 2.05497E-03-9.26796E-04-1.38558E-03 1.58213E-03-1.73577E-04
 -1       758-1.76755E-03 5.45758E-03-1.59993E-03-1.32846E-04 1.55009E-04 9.47400E-05
 -1       759-1.14233E-03 4.31680E-03-1.50002E-03 4.46347E-04-2.12636E-04 6.95001E-05
 -1       760-1.16933E-03 3.21656E-03-8.56248E-04 1.50429E-04-2.32514E-04-1.09154E-05
 -1       761-3.25865E-04 1.22793E-03-3.95215E-04 1.31675E-04-4.43675E-05-2.21727E-05
 -1       762 1.19188E-04-6.21516E-04 1.75711E-04 3.06115E-04-7.51127E-05 1.36168E-05
 -1       763 5.94870E-04-2.02368E-03 6.16806E-04 4.46550E-04-2.05513E-04-1.01392E-04
 -1       764 1.05298E-03-3.17071E-03 8.02307E-04 3.06035E-05 6.78964E-05 2.09551E-05
 -1       765 9.64089E-05-1.31383E-03 5.16419E-04-5.93414E-04 7.75938E-04 7.29972E-05
 -1       766-7.92444E-03-1.13059E-08 2.64521E-03-8.12209E-04 1.24195E-04-1.86994E-04
 -1       767-2.28758E-03 1.77182E-09 9.98692E-04 7.45066E-04 2.15620E-04 3.93994E-04
 -1       768 1.85760E-04-4.02470E-10 6.09050E-06-1.39053E-04-3.13009E-05 3.18410E-05
 -1       769-2.38594E-06-7.05519E-11 6.70140E-06-2.12357E-05-7.20113E-06 8.54514E-06
 -1       770 1.25854E-05-9.04810E-11-9.50259E-07 2.44794E-05 6.68824E-06 3.48623E-08
 -1       771 2.22083E-05-6.95080E-10 2.65575E-05 1.51670E-04-2.90651E-06-6.70639E-05
 -1       772 1.27292E-03-1.25570E-09-4.03530E-04 6.76736E-04 2.66824E-04-1.22496E-04
 -1       773-3.34329E-04 3.58094E-09-6.34947E-05-5.65950E-04 2.18804E-05-2.74158E-04
 -1       774-9.23606E-03 2.85603E-03-1.15958E-08-3.97266E-04 1.26834E-03-2.68444E-04
 -1       775-3.43445E-04-3.60760E-04 9.05780E-04-3.79317E-04-5.63023E-05-1.75730E-04
 -1       776 2.92607E-03-1.36166E-03-1.13792E-03-5.77124E-04 1.38313E-04 3.12800E-05
 -1       777-1.19672E-02 4.00020E-03 3.08617E-03-5.50499E-04 4.57077E-04-7.54910E-04
 -1       778 4.22242E-03-1.58542E-03-1.23588E-03-3.11705E-04-4.10722E-05-6.31273E-06
 -1       779 6.48360E-03-1.86677E-03-2.00238E-03 2.92564E-05 1.68058E-05 1.33825E-05
 -1       780 6.96497E-03-2.00146E-03-2.09476E-03-5.62293E-05 4.79831E-06-6.12417E-06
 -1       781 7.29713E-03-2.22311E-03-2.24893E-03 7.31327E-06 1.35798E-06-2.40303E-05
 -1       782 7.77709E-03-2.31948E-03-2.42576E-03-7.63751E-05-8.60823E-06 1.18011E-05
 -1       783 8.59260E-03-2.46798E-03-2.79199E-03 1.30332E-04-2.93969E-05-2.68941E-04
 -1       784 9.89490E-03-2.88071E-03-3.25998E-03-1.58615E-04-8.14100E-05 1.95257E-04
 -1       785-2.04731E-02 6.04700E-03 6.31681E-03 2.30465E-04 4.63497E-05 2.46819E-04
 -1       786-1.98204E-02 5.92974E-03 5.91573E-03-7.71358E-05 1.37849E-05-3.99699E-05
 -1       787-1.93850E-02 5.84454E-03 5.77519E-03 4.27834E-05-2.44792E-05-9.65348E-07
 -1       788-1.89201E-02 5.84157E-03 5.63678E-03-3.04788E-06-2.35856E-06-2.96831E-06
 -1       789-1.61678E-02 5.58248E-03 4.15803E-03-2.22043E-03-2.28984E-04-1.14968E-04
 -1       790 6.03961E-03-1.66392E-03-1.88709E-03-8.94784E-05-3.60843E-05-4.23087E-06
 -1       791 1.26565E-02-4.83703E-03-2.62092E-03 3.31962E-04-2.16726E-04-4.84795E-04
 -1       792-2.30692E-02 6.93818E-03 7.24125E-03-2.65692E-04 2.12211E-04-6.84727E-04
 -1       793-2.83239E-02 9.07955E-03 6.05569E-03 7.62254E-03 1.00382E-03-2.58093E-03
 -1       794-1.67560E-02 4.91228E-03 5.01129E-03-5.34687E-05-6.42626E-05-1.59544E-04
 -1       795-1.70906E-02 4.54885E-03 5.21506E-03-7.98931E-05 2.21842E-05-5.72704E-05
 -1       796 5.50642E-03-1.60674E-03-1.76057E-03 2.10978E-05-6.10434E-06 1.60895E-05
 -1       797 3.79533E-03-2.78732E-03 6.89758E-04-2.11971E-03 7.07525E-05 2.29167E-04
 -1       798-2.50156E-02 8.13986E-03 5.70394E-03 1.11401E-03-4.47391E-04 1.91231E-03
 -1       799-2.27228E-02 6.50208E-03 7.18961E-03 6.95692E-04-7.36622E-05 4.12380E-04
 -1       800 4.50411E-03-1.38130E-03-1.44298E-03-1.94586E-05 1.78741E-05 5.93530E-06
 -1       801 5.05374E-03-1.18524E-03-1.63994E-03-8.29927E-05-4.27023E-05-3.42488E-05
 -1       802-1.14632E-02 6.09661E-03 3.33897E-03 9.15817E-03-2.88265E-04-1.27859E-03
 -1       803-1.76019E-02 5.57976E-03 5.25853E-03 2.69105E-05-1.80408E-05 8.07782E-06
 -1       804-1.84640E-02 5.54578E-03 5.50376E-03-5.25190E-05 5.65320E-06 4.44700E-05
 -1       805-1.79737E-02 5.04512E-03 5.41246E-03-1.53438E-05-8.83190E-06-5.21160E-06
 -1       806-2.16531E-02 6.30583E-03 6.89598E-03-5.00733E-04-8.17930E-05-9.64723E-05
 -1       807 1.52241E-03 7.88251E-04 1.21297E-03-5.14736E-04 3.00338E-04-1.14547E-03
 -1       808-1.28684E-03 3.75043E-04-7.95269E-04-4.57967E-04 2.02406E-06 4.45929E-04
 -1       809-1.24023E-03 9.33455E-04-5.34957E-04-5.87910E-04-1.06168E-04-2.23855E-04
 -1       810 2.77633E-05 2.89702E-04-6.26067E-05 1.88353E-04 5.96057E-05 4.67389E-05
 -1       811 1.49792E-03-2.21095E-06 3.29277E-04-6.40466E-04-1.68343E-04 3.97302E-04
 -1       812 1.45391E-04 1.45221E-04-8.40778E-05-3.25040E-05-3.19183E-05 3.67493E-05
 -1       813-7.17167E-04 5.82438E-04-1.92205E-04 1.43451E-04 3.08221E-05 1.38251E-04
 -1       814-3.40383E-04 1.45322E-04 3.81551E-05 5.76136E-05 1.75299E-05-6.69491E-05
 -1       815-2.88951E-06 7.90561E-05-2.70189E-05-1.17074E-05 9.10883E-06-3.01608E-07
 -1       816-1.86953E-05 2.54548E-05-9.63584E-06 1.12483E-05 2.61697E-06-9.70198E-07
 -1       817-2.52957E-05 6.55181E-05 2.31781E-06 4.71775E-06 1.44152E-05-1.34449E-05
 -1       818-3.74629E-07 1.03482E-05-5.00176E-06 1.01591E-07-3.02703E-06 3.91586E-06
 -1       819 2.08717E-06 2.04647E-05-6.05685E-06 1.98486E-06 2.00579E-06-1.19304E-06
 -1       820 3.55078E-03-1.68239E-03-9.23350E-04-5.64361E-04 6.52014E-05 2.59303E-04
 -1       821-2.97905E-03 1.83583E-03 1.33783E-03-8.83804E-04-3.54498E-05-1.96939E-04
 -1       822-3.75402E-03 1.79996E-03 9.98018E-04-6.16585E-04 3.09991E-05-8.57682E-05
 -1       823 5.20897E-03-2.22049E-03-1.29203E-03-8.24377E-04-2.06315E-05 9.69372E-06
 -1       824 4.30889E-03-1.30499E-03-1.14178E-03 7.10849E-05 6.24868E-05-3.26491E-05
 -1       825 3.21833E-03-1.07520E-03-9.70629E-04-2.83849E-05-1.20188E-05 3.96859E-06
 -1       826-1.66314E-03-2.50323E-04 6.31746E-04 1.25495E-04 1.71636E-04-3.02888E-05
 -1       827-2.90119E-03 4.93592E-04 9.47724E-04 1.27446E-04-6.21951E-05-1.08626E-04
 -1       828 2.52768E-03-7.33214E-04-6.93259E-04 1.28245E-04 1.34355E-05 8.73549E-05
 -1       829-9.41104E-04 9.83644E-04 4.05428E-04 1.25378E-04-8.16951E-05 8.28755E-06
 -1       830 1.44185E-03-7.90717E-04-3.98804E-04-9.91639E-05 7.57853E-07-1.13761E-05
 -1       831-2.30392E-04-9.18324E-04 1.96004E-04 8.88977E-05 9.44217E-05 3.39497E-05
 -1       832 9.59022E-04-3.00349E-04-2.41411E-04 8.57772E-05 4.10241E-05 1.77441E-05
 -1       833 1.16037E-04 9.29930E-04 3.19276E-05 1.08843E-04-3.48210E-05 5.18142E-05
 -1       834 5.42316E-04 3.65170E-04-1.06364E-04-2.22479E-05-8.42488E-05 2.57283E-05
 -1       835 3.33689E-04-8.71107E-04-1.19628E-05 5.80947E-05 1.88768E-05 1.15079E-05
 -1       836 7.71804E-04-3.02271E-03 1.52465E-03-7.38146E-04 1.47780E-04 1.82025E-04
 -1       837-2.37072E-04 1.48151E-03-8.34749E-04-4.21437E-04-5.62003E-05-1.08330E-04
 -1       838-1.13932E-03 1.91641E-03-5.85718E-04-2.11620E-04 3.00606E-05 6.70772E-05
 -1       839 2.18708E-03-4.50718E-03 1.42469E-03-5.12093E-04 6.96083E-05-6.10139E-05
 -1       840 8.27159E-04-3.94956E-03 1.39570E-03 2.19646E-05 4.26057E-05-3.21489E-05
 -1       841 7.93034E-04-3.49509E-03 1.27872E-03 6.63425E-06 3.44719E-05 8.99167E-06
 -1       842-1.82482E-04 1.35819E-03-5.25851E-04 4.67351E-05 4.94786E-05 1.29009E-05
 -1       843-1.25695E-04 7.76862E-04-2.78753E-04 1.95431E-05 3.51380E-05 2.32320E-06
 -1       844 8.43642E-04-3.00723E-03 9.47900E-04 2.45018E-05-3.47579E-05 2.36058E-05
 -1       845 6.83433E-04-2.07607E-03 6.38902E-04-3.92335E-05 2.63115E-05-2.82914E-05
 -1       846-1.03530E-04 1.20051E-04 3.21081E-05-3.12999E-06-3.94016E-05-2.66192E-05
 -1       847 1.19062E-04-7.51988E-04 2.02837E-04-6.74327E-05 2.71908E-05 6.13826E-05
 -1       848 3.84691E-04-1.35220E-03 4.23044E-04 8.94237E-06 1.54933E-05-2.86854E-05
 -1       849-4.37882E-03 1.59342E-03 9.45132E-04-6.00756E-05 6.36641E-05-1.51053E-05
 -1       850 1.50518E-03-4.77487E-04-2.79736E-04-3.66695E-04 6.98810E-05 7.01401E-05
 -1       851 3.26623E-03-1.08867E-03-2.81557E-04-2.29723E-04 3.34356E-05-8.46370E-06
 -1       852-5.09734E-03 1.25204E-03 1.53792E-03 1.73775E-05-5.08040E-05-8.41140E-05
 -1       853-5.67337E-03 1.39632E-03 1.68467E-03-2.22034E-04 3.51206E-07 3.91353E-05
 -1       854 2.94793E-03-8.81242E-04-6.99490E-04 2.62664E-04-1.52360E-04 6.56144E-05
 -1       855 2.25017E-03-1.00016E-03-5.26388E-04 2.49158E-04 1.12443E-04 4.75856E-05
 -1       856 3.44250E-03-1.10197E-03-6.29547E-04 3.87473E-05-1.25276E-04-2.29722E-04
 -1       857-4.27966E-03 2.05299E-03 1.23760E-03 3.79504E-04 1.93687E-04 3.54492E-05
 -1       858 1.28295E-03-4.01755E-04-2.86986E-04 8.70337E-05-2.65507E-04 1.28733E-05
 -1       859-3.20075E-03 4.69903E-04 9.82653E-04-2.05434E-04-1.43045E-04-2.88099E-05
 -1       860 4.18095E-04-7.57194E-04-3.77876E-05 2.77616E-04 2.22180E-04 1.69467E-05
 -1       861-2.16960E-03 1.51897E-03 6.88246E-04 3.62362E-04 2.96911E-04-5.21920E-06
 -1       862-1.50059E-04-2.94140E-04 1.38640E-04 1.82065E-05-1.69347E-04-4.86311E-05
 -1       863-1.44461E-03 3.07966E-04 5.12941E-04-6.75081E-05-3.68401E-05 1.29918E-06
 -1       864-7.79530E-04 2.09436E-04 3.01298E-04 1.08096E-05-6.13255E-05-1.87854E-05
 -1       865-1.00951E-03 3.49361E-04 3.89537E-04 1.99882E-04 1.55221E-04-3.30074E-06
 -1       866-5.63350E-04-2.72119E-04 2.59396E-04 1.80159E-04 1.41044E-04-1.47276E-05
 -1       867-6.47682E-04 1.01023E-03-1.19664E-04-1.92979E-03-1.97315E-04-1.92080E-04
 -1       868 4.57116E-04-5.61182E-05-2.40655E-04-1.69566E-03 1.80841E-05-2.93320E-04
 -1       869 6.49907E-05 1.04957E-04-8.33906E-05-4.54023E-04 2.91809E-05-3.31121E-05
 -1       870 2.72871E-04 3.98862E-04-3.93588E-04-6.87635E-04 3.32764E-04 6.52125E-04
 -1       871 9.27565E-05-1.35358E-05-3.57169E-05-5.43012E-04-8.23111E-05 1.47026E-05
 -1       872 3.39155E-04-7.27730E-05-1.34947E-04-3.92697E-04 6.86343E-05 4.75172E-05
 -1       873 2.61954E-05 2.48334E-05 2.20079E-05-4.13176E-04-6.79278E-05-2.12617E-05
 -1       874 2.76677E-04-4.78441E-05-6.37915E-05-4.39322E-04 3.64965E-05-5.65174E-05
 -1       875-1.19815E-03 5.02294E-04 2.13235E-04-1.30101E-04 2.55248E-04-1.57798E-04
 -1       876-1.60547E-04 9.19240E-05 1.30565E-04-5.57798E-04 4.82748E-05 4.38222E-05
 -1       877-1.27015E-02 3.92071E-03 3.72964E-03-4.65672E-04-4.01826E-05 3.34981E-05
 -1       878-1.23453E-02 3.71106E-03 3.63046E-03-3.57155E-04 1.15534E-04-8.79867E-05
 -1       879-1.27635E-02 3.97743E-03 3.75822E-03-4.37692E-04 9.27252E-05-6.02217E-05
 -1       880-1.23737E-02 3.62153E-03 3.72709E-03-5.09026E-04 6.99112E-05 5.35704E-06
 -1       881-1.26758E-02 3.83914E-03 3.71016E-03-4.13141E-04 2.41759E-04 6.56225E-06
 -1       882-1.24381E-02 3.64271E-03 3.77844E-03-4.03509E-04-5.03272E-05-7.54745E-05
 -1       883-1.32693E-02 3.77256E-03 4.47624E-03-5.47987E-04-2.49089E-04 2.04089E-03
 -1       884-1.25295E-02 3.60346E-03 3.79338E-03-4.62789E-04-1.70411E-04-2.09363E-04
 -1       885-1.07738E-02 2.30043E-03 3.72508E-03-1.06206E-03-7.34772E-04 3.27163E-03
 -1       886-5.04968E-05-1.10207E-04 5.60155E-05 2.03214E-04 1.20162E-04-2.12435E-04
 -1       887-4.01613E-03 5.85757E-04 1.33034E-03 2.66218E-04-2.83387E-04 6.76309E-04
 -1       888 1.78089E-03 7.47929E-05-7.79337E-04 8.52043E-04-1.07458E-04-2.72369E-04
 -1       889 2.43985E-04 3.24547E-04-2.40307E-04 6.24622E-04 9.87163E-05 1.00690E-04
 -1       890 2.66039E-04-2.80247E-04-7.15242E-05-9.89373E-04-1.14855E-04 2.57296E-04
 -1       891 3.39930E-03-8.36000E-04-1.08935E-03 2.39729E-04-7.83912E-05-2.06751E-04
 -1       892-1.74641E-03 1.37609E-03 2.48976E-04-9.47448E-04 2.42495E-04 2.04262E-04
 -1       893-6.79724E-05-1.15907E-03 5.47575E-04-2.08607E-05 2.40460E-04-1.38842E-03
 -1       894-3.50719E-04-6.39877E-05 2.22005E-04 1.31143E-03 3.01751E-04 1.47859E-04
 -1       895-7.63668E-04-4.84630E-04 3.65907E-04-2.78450E-03 3.99130E-04 2.48267E-04
 -1       896 1.47514E-03-2.26982E-03 3.46269E-04-2.22469E-03-9.35765E-05 6.76687E-04
 -1       897-2.74121E-03 1.63644E-03 5.30435E-04-1.84247E-03 4.45103E-04-4.66133E-05
 -1       898 7.17322E-04-3.32268E-04-1.70107E-04 3.72670E-05-1.68537E-04 3.92579E-05
 -1       899-1.10059E-04 6.61282E-05 1.20194E-05 6.59975E-04 1.17594E-04-9.09379E-05
 -1       900 1.70511E-03-1.02759E-03-3.37676E-04-1.37954E-03-9.78852E-05 9.29693E-05
 -1       901-8.97214E-04-4.95819E-05 3.97956E-04-1.30828E-04-6.41568E-04-2.92311E-05
 -1       902 2.17495E-04-4.98808E-04 1.41916E-04 6.44608E-04 5.00477E-05 6.38392E-05
 -1       903-1.70855E-04 1.42869E-05 1.21270E-04 5.11025E-04-3.88064E-05 3.73612E-05
 -1       904 3.27010E-04-4.95106E-04 3.16662E-05 4.33322E-04 1.16448E-05 2.55725E-05
 -1       905-1.45879E-04 5.70751E-04-1.77669E-04 2.28519E-04 5.83764E-05-2.75668E-04
 -1       906 4.00594E-04-5.19267E-04 3.24818E-05 8.88738E-04-7.16987E-04 1.23027E-04
 -1       907-3.00294E-04 6.03848E-04-4.80948E-05 1.15113E-03 2.08808E-04 1.95920E-04
 -1       908 8.46221E-05-3.19673E-04 1.04087E-04 8.03240E-04-2.50641E-04 4.27497E-05
 -1       909 3.45854E-04-1.53597E-04 7.97244E-05-1.35740E-04-4.85968E-05 6.66314E-05
 -1       910-1.40146E-04 2.14074E-04-1.47944E-04 1.46817E-04-8.75582E-05-1.23187E-04
 -1       911 9.85304E-05 4.27260E-05-4.99919E-05-5.37232E-04-1.35582E-04 7.05851E-05
 -1       912-2.55039E-03 1.26183E-03 4.80463E-04-1.22392E-03-6.35246E-05-1.36408E-04
 -1       913-1.26936E-02 3.03276E-03 4.24528E-03-3.22085E-03 3.22951E-04-2.55502E-04
 -1       914-1.43550E-02 3.71030E-03 4.44643E-03-1.26167E-03-4.70836E-05 2.76274E-04
 -1       915-1.22392E-02 3.41297E-03 3.64403E-03-6.47246E-04-1.40696E-04-4.21561E-04
 -1       916-1.24613E-02 3.73693E-03 3.73227E-03-3.30516E-04-2.59778E-05 5.32353E-05
 -1       917 3.21843E-04-6.39990E-05-1.21094E-04-3.40404E-04 1.63436E-05-7.13963E-05
 -1       918 3.28502E-04-5.39562E-05-1.14198E-04-3.17569E-04 5.91639E-05-5.75990E-05
 -1       919 7.21733E-05 7.20070E-05-5.27013E-05-4.34106E-04-1.23923E-04-8.90962E-06
 -1       920-7.83776E-03 1.64799E-03 2.75904E-03-2.63289E-04 2.79975E-04 6.32985E-04
 -1       921-7.39477E-03 1.75364E-03 2.40052E-03 8.49823E-04-4.99268E-05-7.74088E-04
 -1       922-1.27098E-02 3.88610E-03 3.72216E-03-2.75176E-04 2.54129E-04-2.00448E-05
 -1       923-2.01584E-05 8.53542E-05-2.22647E-05 2.86794E-05 1.18867E-05 8.39154E-07
 -1       924-5.85012E-05 7.19327E-05-1.55084E-05-8.49284E-05-1.07444E-05 1.39771E-05
 -1       925 2.46605E-05 1.08401E-05-2.33834E-05 3.27500E-05-3.51636E-06 5.28363E-07
 -1       926-4.22999E-04 1.87879E-04 1.91705E-04 8.57502E-04 1.50142E-04-1.60199E-04
 -1       927 3.22343E-04-5.92718E-04 1.27573E-04 3.30886E-04 1.87350E-05-1.82684E-05
 -1       928-3.75934E-04 1.56024E-04 3.01457E-05 4.02159E-04 3.91626E-07-1.84152E-05
 -1       929-3.37090E-04 2.41447E-04 4.43542E-05 6.27943E-04 1.41214E-06 5.08993E-07
 -1       930 8.83173E-06-4.56947E-04 2.48064E-04 4.55455E-04-4.45041E-05 3.71400E-04
 -1       931-1.26492E-02 2.87391E-03 4.34121E-03-3.90832E-03 7.42271E-04 9.59431E-04
 -1       932-8.11707E-03 1.19521E-03 2.86551E-03 9.47636E-04-3.87956E-04 7.42614E-04
 -1       933-6.00995E-03 1.56535E-03 1.94923E-03 1.38343E-03 3.49111E-04-4.87703E-04
 -1       934-3.50440E-04 9.80952E-04-8.10607E-04-3.46906E-03-7.90314E-04-3.72960E-04
 -1       935-5.66080E-03 2.88996E-03 1.19440E-03 1.35640E-03 1.76417E-05 1.10585E-03
 -1       936-1.24866E-02 2.78579E-03 3.20714E-03 8.40710E-04 9.10366E-04-2.61109E-03
 -1       937-2.73298E-05 8.47650E-06 1.12851E-05-1.29354E-05 4.28889E-06-4.17319E-07
 -1       938-5.55687E-04 2.98677E-05 2.31709E-04 4.99869E-04-1.12562E-04-9.18554E-05
 -1       939 8.89524E-06 7.97459E-05 2.46031E-05 7.59015E-04-1.48659E-04-2.96308E-04
 -1       940-3.00404E-04 1.85971E-04 6.20164E-05 2.76181E-04 1.98419E-05-3.21687E-04
 -1       941 2.89123E-06 1.25366E-05-4.95556E-06 1.10761E-05 4.29816E-06 3.12124E-06
 -1       942 6.28898E-04-6.00305E-04-2.37807E-05 3.95797E-04-1.51668E-05-4.39716E-05
 -1       943 3.86483E-04-4.84304E-04 7.54554E-05 2.09918E-04-3.50157E-05-6.09527E-05
 -1       944-1.23926E-02 3.65577E-03 3.74353E-03-2.77827E-03 7.92377E-04-2.89832E-03
 -1       945-4.02690E-06 9.39614E-06-4.24244E-06-5.07768E-06-3.83147E-06-5.07081E-07
 -1       946-4.42478E-04 1.33158E-04 9.59890E-05 2.88595E-04 3.08886E-05-4.09166E-05
 -1       947-6.80795E-05-1.81165E-04 1.93823E-04 9.42143E-05-1.46879E-04-1.91682E-04
 -1       948-3.54934E-04 1.42903E-04 1.25566E-04 1.84390E-04-5.83244E-05 3.71329E-04
 -1       949-1.02334E-04-1.58638E-04 2.09592E-04 8.31599E-05 2.02674E-04 2.91252E-04
 -1       950-2.61154E-04 1.52308E-04-4.76902E-05-3.42071E-05-6.12684E-05 2.68424E-05
 -1       951 5.75625E-04 3.98892E-05-2.10939E-04-1.78710E-03-3.98846E-05 2.85325E-04
 -1       952-8.10705E-04 1.19581E-03-1.53126E-04-1.95596E-03-8.15479E-05 2.44919E-04
 -1       953 4.03272E-04 2.50565E-04-3.95291E-04-7.32742E-04 1.61284E-05-5.09687E-04
 -1       954-4.06505E-05 8.42820E-05-3.59613E-05-4.26606E-04-9.53970E-05 1.19589E-04
 -1       955 3.98347E-04-1.50957E-04-7.84914E-05-3.92875E-04 7.08357E-05 1.19438E-05
 -1       956-2.76726E-05 1.70924E-04-4.82009E-05-4.79274E-04-1.31037E-05 5.29856E-06
 -1       957 3.55655E-04-8.77091E-05-7.57648E-05-4.69234E-04 3.82783E-05-1.99468E-05
 -1       958 1.38707E-05 6.79290E-05-2.41800E-05-4.51811E-04-1.65567E-07 1.51786E-05
 -1       959 2.38534E-04-1.15508E-04 3.00290E-05-4.49866E-04-1.21763E-05-1.63970E-05
 -1       960-4.64796E-04 2.25164E-04 1.28790E-04-1.59656E-04-6.19753E-05 5.15738E-06
 -1       961-1.53476E-03 1.29408E-03-2.14137E-04-5.78586E-04 9.21375E-05-8.30805E-04
 -1       962-2.18086E-03 6.96232E-04 7.54222E-04 3.65480E-04-2.57786E-04-2.86803E-04
 -1       963-9.96751E-03 3.00509E-03 3.05624E-03 2.66245E-04 3.58150E-04 2.18710E-04
 -1       964-1.16629E-02 3.24764E-03 3.64683E-03-5.32825E-04-6.48810E-05-6.12923E-06
 -1       965-1.21854E-02 3.66156E-03 3.61927E-03-2.27316E-04 1.89358E-05 9.27500E-05
 -1       966-1.27287E-02 3.90742E-03 3.75239E-03-5.17889E-04 1.65793E-05-3.66696E-05
 -1       967-1.23596E-02 3.63050E-03 3.72800E-03-5.03437E-04-6.36864E-05-1.57781E-05
 -1       968-1.28138E-02 3.97381E-03 3.77131E-03-5.00173E-04 1.99769E-05 1.66512E-05
 -1       969-1.22937E-02 3.44234E-03 3.83437E-03-3.50953E-04 4.21145E-05 5.00872E-05
 -1       970-1.31553E-02 3.37127E-03 4.46891E-03-8.97017E-04 7.75041E-05-1.48307E-03
 -1       971-1.11428E-02 2.64236E-03 3.20886E-03-1.08715E-03-3.53332E-05 2.32847E-04
 -1       972-4.51020E-03 3.17718E-04 1.38388E-03 7.43289E-04-7.61015E-05 4.66554E-05
 -1       973 5.72248E-06-3.94028E-04 2.12782E-04 3.07566E-04-2.09738E-04 5.03664E-04
 -1       974-2.39777E-05 9.55314E-05-2.21495E-05 4.38162E-05-1.44101E-05 1.75338E-05
 -1       975-1.15418E-04 1.60048E-04-3.32342E-05 1.58018E-04 4.98601E-05-2.63764E-05
 -1       976 3.75252E-04 3.84427E-04-3.35862E-04 7.33064E-04-1.43650E-05-3.95625E-05
 -1       977 1.98004E-03-5.69753E-05-6.26225E-04 8.32474E-04-3.85017E-04-1.92704E-04
 -1       978 3.34156E-03-9.96701E-04-1.01366E-03 7.42452E-05 2.67472E-04 9.86730E-05
 -1       979 2.41042E-04-4.26127E-04 3.04088E-04-1.07451E-03-1.37895E-04-5.17418E-04
 -1       980-1.70435E-03 1.22157E-03 8.85973E-05-1.31495E-03-1.52680E-04-5.98549E-04
 -1       981 4.21168E-04-1.24480E-03 2.29335E-04-1.87540E-04 3.98855E-04-5.72767E-04
 -1       982 9.93976E-04-2.42763E-03 5.71897E-04-2.21474E-03 4.39652E-06 4.40928E-04
 -1       983-8.28971E-04-1.33470E-04 5.34970E-04-2.69372E-03-1.54019E-04-1.45197E-04
 -1       984-2.52759E-03 1.97465E-03 3.33804E-04-2.63619E-03 1.10984E-04 1.23412E-04
 -1       985-1.24967E-03-3.01000E-04 5.68198E-04-2.29305E-04 3.65927E-04 3.17797E-04
 -1       986-1.62671E-04-4.42297E-04 3.06531E-04 8.77632E-04-1.70039E-04-7.30708E-05
 -1       987-8.41325E-05-2.51853E-06-6.24502E-06 4.82614E-04-1.45326E-06 2.83128E-05
 -1       988 1.85967E-06-4.31672E-04 1.85545E-04 4.42530E-04-2.58836E-05 1.98595E-06
 -1       989 1.52553E-04-2.45184E-05-3.34130E-05 7.23302E-04-1.18895E-04 1.21871E-04
 -1       990 6.91144E-04-2.57062E-04-9.61214E-05-1.99625E-04 6.96202E-04 2.88781E-04
 -1       991 1.73071E-03-1.26993E-03-2.32553E-04-1.64741E-03-3.81585E-04-4.62880E-05
 -1       992-5.89652E-04 1.08227E-03-3.22053E-04 9.18114E-05 1.97368E-04 1.11691E-03
 -1       993-6.48053E-04 1.72641E-04 1.72689E-04 9.86659E-04-1.84308E-04-7.16217E-06
 -1       994 2.69944E-04-3.92092E-04-3.13405E-05 8.80819E-04 1.72969E-04-1.48004E-04
 -1       995-3.60089E-04 6.67317E-05 1.23675E-04 1.07568E-03 3.24884E-04 2.18202E-05
 -1       996 3.99929E-04-1.28511E-04 1.62159E-04-2.32582E-04 7.92480E-05-2.11429E-04
 -1       997-1.23971E-02 3.71818E-03 3.70219E-03-3.50715E-04-4.02576E-05-6.42899E-05
 -1       998-1.28996E-02 4.05889E-03 3.75806E-03-3.49618E-04 9.60469E-05-5.99799E-05
 -1       999 2.22932E-04-4.19907E-04 8.84588E-05 6.69482E-04 4.95689E-05 6.18516E-05
 -1      1000-8.23070E-03 2.03722E-03 2.63637E-03-1.54062E-03 2.19803E-05 7.21378E-04
 -1      1001-1.28012E-02 3.91864E-03 3.81578E-03-3.04604E-04-2.83164E-05 5.98503E-06
 -1      1002-1.23681E-02 3.60436E-03 3.74386E-03-3.67248E-04-5.10619E-05 1.12851E-05
 -1      1003-6.89541E-05 1.02276E-04 9.17406E-05-1.57641E-04 4.95640E-05-3.75710E-05
 -1      1004-5.72106E-04 1.42870E-04 8.49472E-05 8.11119E-04-9.00524E-05 3.40246E-04
 -1      1005-1.36534E-04 6.11363E-05 2.22383E-05 3.60152E-04 5.04030E-05-3.43962E-06
 -1      1006-5.50994E-04 4.22131E-04 4.53799E-05 6.43847E-04-2.07843E-04-1.87273E-04
 -1      1007 1.64821E-04-4.50435E-04 1.32102E-04 8.28447E-04 1.53261E-05-2.13680E-05
 -1      1008 1.91382E-04-1.87593E-04-4.80543E-05 5.64403E-04-6.11049E-05-1.02606E-05
 -1      1009 2.00548E-04-3.46582E-04-2.76215E-06 4.78105E-04-1.13684E-05-3.85025E-05
 -1      1010 2.95060E-05 1.52485E-05-1.49377E-05 4.09281E-05 8.42571E-06 3.70157E-06
 -1      1011-2.78375E-05 2.41954E-04-8.15866E-05-3.60234E-04-5.98092E-05 6.95054E-07
 -1      1012 3.95381E-04-1.01464E-04-1.01827E-04-2.95508E-04 8.99990E-05-1.64651E-06
 -1      1013-1.30517E-02 3.57993E-03 3.70543E-03-3.30650E-03-1.19211E-03 2.55519E-04
 -1      1014-1.27188E-02 3.11413E-03 4.08343E-03 5.76375E-04 6.64819E-04 1.30874E-03
 -1      1015 3.72434E-04-5.38480E-04 1.55548E-04 7.37346E-04-2.00638E-05 2.22221E-05
 -1      1016-4.54872E-04 2.05737E-04 1.52443E-04 5.01789E-04-5.81483E-05 9.72329E-05
 -1      1017 4.90189E-06 1.57118E-05-1.01567E-05 1.33637E-05-3.34034E-06-6.77933E-07
 -1      1018 4.79911E-05-3.55016E-04 1.62270E-04 2.46781E-04 3.69640E-04-1.85864E-04
 -1      1019-4.65711E-05 1.24568E-05 1.35954E-05-1.80840E-05-1.09136E-05-4.80048E-06
 -1      1020 3.69606E-06 1.19098E-05 2.07772E-06-7.63222E-06 7.88353E-07 4.19519E-06
 -1      1021-3.13247E-04 2.09470E-04 3.12914E-05 8.58189E-05-5.32754E-04 2.77069E-04
 -1      1022-7.16835E-05-1.78982E-04 1.74820E-04 2.06188E-04 2.22334E-04 1.81313E-04
 -1      1023-3.25304E-04 1.37235E-04 2.13477E-05 7.19325E-05-3.72301E-04-3.86398E-05
 -1      1024-1.20033E-04-1.63344E-04 1.24154E-04 4.26697E-05 2.47482E-04-6.56281E-05
 -1      1025-2.32700E-04 8.88080E-05 9.05788E-05 3.81214E-04-7.27795E-06-2.37019E-05
 -1      1026 3.70632E-04-5.12578E-04 5.46496E-05 7.18555E-04 4.89089E-05 2.52780E-06
 -1      1027 5.83653E-04-1.65128E-03 4.57881E-04 7.31047E-04-4.35230E-05-1.55478E-05
 -1      1028-4.62020E-06-1.15942E-04 3.71546E-05 6.49849E-04 3.38103E-05 2.32267E-05
 -1      1029-1.42625E-04 7.33295E-05 3.86746E-05 1.53122E-04-6.40466E-05-1.55514E-05
 -1      1030 1.96815E-04-1.02480E-03 3.76121E-04 1.38320E-05 3.24861E-05-7.54428E-07
 -1      1031-6.76588E-04 1.95723E-04 2.13580E-04-6.54888E-04 1.46875E-04 2.64007E-04
 -1      1032 2.23958E-05-9.87929E-05-1.31069E-04-5.92640E-05 6.38335E-05 6.67805E-05
 -1      1033 1.67777E-04-3.68613E-05-1.49697E-04 1.50851E-04 6.49853E-06-3.99774E-05
 -1      1034 3.67476E-05 1.75741E-06-1.27313E-04 2.59414E-05-1.55487E-05 4.08197E-05
 -1      1035 3.99619E-04 3.78214E-05 1.86478E-04 3.55904E-04-2.09463E-05 1.08076E-04
 -1      1036-4.23174E-05 2.03558E-05-4.66784E-05-7.26623E-06 1.27494E-06-3.08043E-05
 -1      1037-4.19990E-04-7.95613E-05 2.28685E-04 1.04027E-04-5.06857E-05-7.41859E-05
 -1      1038-1.56728E-06 3.99729E-06-8.35837E-06 5.62860E-06-1.28978E-05 1.22173E-05
 -1      1039 5.77472E-06 2.57372E-06 9.32280E-05-3.96418E-05 1.97308E-05 2.75026E-05
 -1      1040 5.81064E-05 1.66680E-05 2.64992E-05-7.84574E-05-1.56022E-05-3.56118E-05
 -1      1041 2.00052E-06 3.44065E-07-1.20707E-06-1.70938E-06 9.38532E-07-1.01812E-06
 -1      1042-1.80356E-06 2.85358E-06 8.72506E-06-1.27970E-05-1.18698E-06 1.95123E-06
 -1      1043-2.25273E-07 3.82001E-07 5.79050E-07 4.55855E-06-2.68313E-07-3.28610E-06
 -1      1044-4.91114E-07 4.57713E-07-1.17890E-06 1.17647E-07-2.23016E-06 1.01827E-06
 -1      1045-8.83728E-06 4.72378E-07 2.50598E-06 1.45371E-06-3.95831E-06-1.16411E-06
 -1      1046-8.83836E-04 1.74271E-03-1.02460E-04-1.04193E-05 4.23832E-05-6.91409E-05
 -1      1047 3.92532E-04-1.06318E-03 1.18718E-04 4.06307E-05 1.29901E-04 2.19593E-06
 -1      1048 7.86765E-04-2.02455E-03 2.68637E-04-1.84638E-04-1.03363E-04-1.67969E-05
 -1      1049-1.15993E-03 3.86894E-03-7.60061E-04 1.09306E-05-1.98018E-04 9.86709E-05
 -1      1050-1.15498E-03 3.56786E-03-3.74824E-04-1.71377E-04-9.70822E-05-6.21841E-05
 -1      1051-1.06586E-03 3.29265E-03-8.79142E-04-3.19599E-05 6.34641E-05 1.27079E-05
 -1      1052-1.08229E-03 3.72472E-03-1.00330E-03 1.15952E-04 7.18526E-06-1.33844E-04
 -1      1053-4.62111E-04 2.06004E-03-6.74101E-04 1.32583E-05-5.93753E-05 1.66263E-04
 -1      1054-7.28902E-04 2.59609E-03-7.14290E-04-5.12832E-05-4.22149E-05-4.81264E-05
 -1      1055 7.60044E-04-2.01256E-03 4.56592E-04 2.64728E-05 5.36782E-05 8.61073E-05
 -1      1056 6.43586E-04-1.60024E-03 3.99344E-04-3.11824E-05-1.46058E-05-1.01650E-04
 -1      1057 7.66471E-04-2.18031E-03 3.90489E-04 2.08232E-06-1.68052E-04-2.76959E-05
 -1      1058 3.40732E-04-8.29012E-04 2.33004E-04-2.37399E-05-1.12452E-05 7.79419E-05
 -1      1059 1.36723E-04-2.85513E-04 1.16995E-05 1.78138E-05-6.95651E-05-1.24563E-04
 -1      1060-4.40231E-04 1.21171E-03-3.83523E-04-4.03305E-05-1.60461E-05-6.73800E-05
 -1      1061 2.18182E-04 6.03382E-04-2.39335E-04-7.30226E-05 6.63643E-06 1.51831E-04
 -1      1062-1.51060E-03 4.14415E-04 3.64696E-04 1.74419E-04-9.05091E-05-1.50896E-04
 -1      1063-1.15362E-02 3.32597E-03 3.45235E-03 2.61945E-04 2.39333E-04-7.09824E-04
 -1      1064-1.05333E-02 2.78330E-03 3.60075E-03-1.81530E-04-7.31122E-04 3.25638E-04
 -1      1065-5.97965E-03 1.97964E-03 1.70239E-03-4.47421E-05-3.86848E-05 1.08270E-05
 -1      1066-5.36006E-03 1.43891E-03 1.54049E-03 1.97224E-06 4.55490E-05-1.06674E-05
 -1      1067-6.81135E-03 2.13206E-03 1.98326E-03-3.50141E-05-3.21738E-05 2.23482E-05
 -1      1068-6.34177E-03 1.78249E-03 1.85265E-03-6.93266E-06 3.45775E-05 6.62351E-07
 -1      1069-7.15661E-03 2.12901E-03 2.07454E-03 9.91314E-05 3.10406E-05 8.56278E-05
 -1      1070-7.02263E-03 1.98529E-03 2.08883E-03 2.05640E-05 5.68983E-05-2.18752E-05
 -1      1071-6.59215E-03 2.33732E-03 1.86727E-03 1.87284E-04 2.50558E-04 6.82989E-05
 -1      1072-6.86108E-03 1.64219E-03 2.04205E-03-7.19649E-05-1.04270E-04-7.26455E-06
 -1      1073-5.56907E-03 1.49820E-03 1.79926E-03-8.30386E-05 1.84629E-04-8.86808E-05
 -1      1074-6.03386E-03 2.30387E-03 1.82133E-03 1.02785E-04-2.00319E-04 2.55639E-05
 -1      1075-5.44519E-03 1.71901E-03 1.60955E-03 3.76828E-05-6.63700E-05-3.28980E-05
 -1      1076-5.28305E-03 1.96582E-03 1.55611E-03 1.78338E-04 6.93796E-06 4.75575E-05
 -1      1077-6.24763E-03 2.13810E-03 1.83393E-03-3.53260E-05-3.81697E-05-6.44395E-06
 -1      1078-5.73536E-03 1.62283E-03 1.69908E-03 4.93149E-06 3.33998E-05 1.22174E-05
 -1      1079-9.15929E-03 2.76910E-03 2.99990E-03 4.33027E-05 8.55035E-05 2.25561E-04
 -1      1080-2.58902E-03 9.10247E-04 4.54747E-04-2.20194E-04 3.60232E-06 1.32255E-04
 -1      1081-6.74642E-03 1.84802E-03 1.98665E-03 5.28690E-07 2.16174E-05-4.38773E-06
 -1      1082-8.57582E-03 2.47926E-03 2.55698E-03 4.22177E-05-1.32755E-05 8.02317E-05
 -1      1083-3.12980E-03 9.90974E-04 7.65736E-04 1.57940E-04-6.90335E-06-1.56832E-04
 -1      1084-4.00616E-03 1.49957E-03 1.01277E-03-1.10032E-04-3.92163E-06 2.82450E-05
 -1      1085-8.15883E-03 2.60850E-03 2.46955E-03-3.41858E-05 3.78570E-05-1.58572E-05
 -1      1086-7.60828E-03 2.21009E-03 2.29767E-03-2.89777E-05 2.28113E-05 5.18271E-06
 -1      1087-4.39054E-03 1.28172E-03 1.20212E-03-2.02738E-06 3.04491E-05 1.59746E-06
 -1      1088-5.02541E-03 1.77143E-03 1.37038E-03-8.92276E-05-5.87281E-05-9.16404E-06
 -1      1089-7.23927E-03 2.44226E-03 2.13615E-03-3.52184E-05-1.21546E-05-1.87347E-05
 -1      1090 1.05791E-09 1.80494E-09-6.97825E-09 3.91462E-10-2.13172E-09 7.81246E-10
 -1      1091 5.62721E-10 7.58528E-09-9.46493E-09-3.12974E-10 4.54154E-09 2.84358E-11
 -1      1092-2.15666E-09-4.93570E-09 8.83619E-09-2.72160E-11 5.63488E-10-6.81372E-11
 -1      1093-3.18892E-09-4.43679E-09 1.20283E-08 7.56337E-11 9.20466E-10-5.79857E-10
 -1      1094-2.46840E-09 5.26676E-09 1.92304E-09-3.19307E-10 4.27135E-09-2.91200E-10
 -1      1095 3.84736E-03-1.03727E-02-6.97114E-05 7.28547E-03-9.79882E-04 8.43902E-04
 -1      1096 3.27737E-04 9.29485E-05 1.90384E-04-6.50639E-04 3.69829E-04-1.38989E-05
 -1      1097 7.21317E-03-2.07838E-03-3.72273E-04-8.98267E-03-1.62534E-04-3.63319E-04
 -1      1098 5.32599E-06 2.30101E-05-1.61461E-05 9.74860E-07-1.74958E-05-3.91614E-06
 -1      1099-3.49130E-04 5.03557E-05-4.54354E-06 5.34985E-04 1.00033E-04-1.39899E-04
 -1      1100 3.46049E-04 6.63666E-04-2.43403E-04-8.09624E-04-1.45596E-04 1.33172E-04
 -1      1101-3.57181E-07-4.87979E-07 1.07337E-06 5.18407E-08 7.50443E-07-9.00901E-08
 -1      1102 1.13182E-06 1.25417E-08-2.25012E-06-9.39961E-08-9.13517E-07-6.25396E-08
 -1      1103-4.65580E-08-8.04800E-07 8.81830E-07-9.12524E-08 5.28074E-07-5.21329E-08
 -1      1104-2.12868E-08-6.01669E-08 6.72640E-08 2.82412E-08 3.46123E-08 1.48006E-08
 -1      1105 4.74872E-08-2.23949E-07 9.03820E-08-6.56515E-08-4.36763E-08-1.92798E-08
 -1      1106-2.95194E-09-1.54295E-09 4.55212E-09 6.70291E-10-4.17531E-09-6.44199E-10
 -1      1107 1.00211E-02-1.19018E-02 1.16756E-04 1.86051E-03-9.12154E-05-9.22018E-06
 -1      1108-7.16122E-04 9.81679E-04-3.65260E-04-6.90130E-04-1.16837E-04 2.84954E-04
 -1      1109 5.48012E-04 2.16477E-04-2.27777E-04-5.15763E-04-4.89234E-04 2.38622E-04
 -1      1110-2.46826E-04-1.44591E-04 1.00440E-04 5.12687E-04-1.19445E-05-5.91207E-05
 -1      1111-1.33270E-05-2.39586E-05-4.98403E-06 1.45092E-05-1.45220E-05-1.00918E-05
 -1      1112-2.55823E-09 7.70216E-09-5.10044E-09 3.68629E-10 5.52521E-09-1.10513E-09
 -1      1113 7.54138E-03-7.01486E-03-2.85086E-04 7.77453E-04 7.99816E-04-1.22215E-04
 -1      1114-3.41375E-09-6.36390E-09 1.64998E-08-2.55653E-09 2.58359E-08 2.37499E-10
 -1      1115-2.04588E-09-1.71297E-08 2.39487E-08-4.32509E-10 1.47839E-08 1.31889E-10
 -1      1116 2.37918E-03-6.72858E-03 8.53914E-05 1.07987E-03-7.79794E-04-3.80306E-04
 -1      1117-3.48007E-09-2.00519E-08 2.03765E-08 1.51973E-09 7.79480E-09 6.04537E-10
 -1      1118 8.17837E-10-2.58767E-08 1.29422E-08-4.70104E-09 1.60750E-08-3.22301E-09
 -1      1119 1.45395E-08 2.20868E-08-6.62354E-08 7.12441E-08-1.45232E-08 3.89206E-08
 -1      1120 9.40829E-09-3.92263E-08 2.08185E-08 1.16369E-09-2.02046E-08-3.74571E-09
 -1      1121-2.12313E-08 3.42926E-09 5.98139E-08 3.38454E-09 9.30389E-08 5.20424E-09
 -1      1122 8.30528E-06 5.03171E-06-4.64214E-06-7.86364E-06-3.28736E-06 1.52690E-06
 -1      1123-7.69856E-04 1.26845E-02 2.50390E-04 3.61112E-03 3.75926E-04 1.52773E-04
 -1      1124-9.50653E-04 2.41905E-04-2.89269E-04 7.10636E-04 1.61565E-04 7.19763E-04
 -1      1125 2.77927E-03-8.45933E-04-1.34968E-03-6.09307E-03-2.25291E-04-9.28623E-04
 -1      1126-2.96168E-05-1.06898E-05 3.45714E-06-1.78908E-05-1.42947E-05 6.73934E-06
 -1      1127 8.08223E-06-1.96141E-05 5.00348E-05 4.76900E-06-1.01087E-05-2.55233E-05
 -1      1128 1.30120E-04-1.66384E-04-1.64359E-04-9.97749E-05-1.16351E-04 4.82827E-05
 -1      1129-1.27559E-07-7.11444E-07 1.23331E-06-4.92023E-07 1.15959E-06-3.68990E-07
 -1      1130-6.06825E-08 6.29983E-07-1.23267E-06-3.36295E-07-4.14352E-07-6.39775E-07
 -1      1131-1.20595E-08 7.62143E-09-8.28032E-08-1.17200E-07-1.76688E-09-1.87127E-07
 -1      1132 1.75551E-08-8.71113E-07 9.16873E-07-7.15787E-07 5.83096E-07-2.25940E-07
 -1      1133 3.10557E-08-1.40309E-07 5.76088E-08 1.14795E-07-5.07638E-08 5.19795E-08
 -1      1134-3.24047E-09 9.24760E-09-8.06527E-09-2.03137E-09 6.37264E-09-1.08034E-09
 -1      1135 4.46725E-04 9.93866E-03-8.54418E-04 1.72117E-03 1.91996E-03 1.04624E-03
 -1      1136 6.44035E-04-2.85540E-03 1.64743E-04 5.17789E-05-4.21509E-04 1.11891E-04
 -1      1137 9.92107E-05-4.27721E-04 2.07654E-04-7.61005E-05-5.33019E-05-5.78663E-05
 -1      1138-3.52776E-05 7.85325E-05-2.95142E-05 4.55511E-05 5.85345E-05 1.11569E-05
 -1      1139-3.61617E-07 2.79650E-05-1.84976E-05-9.74737E-07-1.43903E-05 4.93296E-06
 -1      1140 9.74482E-09-8.35020E-08 7.13324E-08 1.73567E-09 3.40659E-08 1.44990E-09
 -1      1141-2.54318E-09-1.02626E-09 5.72069E-09-4.71952E-10-2.85633E-09-1.35514E-10
 -1      1142-2.94120E-03 8.89542E-03-2.51207E-04-2.65962E-04 1.06564E-03-6.03063E-05
 -1      1143-1.99536E-09-1.62400E-08 2.44857E-08 1.40890E-09 1.38093E-08 4.80213E-10
 -1      1144-2.63565E-09-9.77773E-09 1.46569E-08 7.15447E-10 2.27574E-08 6.61721E-10
 -1      1145-4.87129E-03 8.36723E-03 6.33866E-04 7.18048E-03-5.63856E-04-1.49609E-04
 -1      1146-3.77299E-09-1.04522E-08 1.38509E-08-4.20203E-09 2.42091E-08-3.91196E-10
 -1      1147-2.19553E-09-2.62078E-08 2.09571E-08 2.13967E-10 7.71863E-09-4.53847E-10
 -1      1148-1.60964E-08-7.44412E-09 7.62083E-08 6.13604E-09 9.36286E-08 2.37855E-09
 -1      1149-4.07363E-09-2.94834E-08 2.21100E-08-8.66032E-10-1.73057E-08-1.92407E-09
 -1      1150-4.59695E-07 4.82003E-07-4.81247E-06 6.67767E-07-4.17399E-06-4.04672E-06
 -1      1151 5.39789E-03 1.00424E-02 2.41713E-03 1.11309E-03 1.96160E-04 1.43177E-03
 -1      1152 9.17417E-10-1.21775E-09 1.70525E-09-8.89084E-10 1.95632E-09-1.98005E-09
 -1      1153 2.11830E-03-5.47811E-03-7.86236E-04-4.55835E-04-3.56530E-03 6.98134E-04
 -1      1154-1.24122E-09 1.40961E-08-1.00130E-08 1.34284E-09-1.37007E-09-1.82678E-09
 -1      1155 2.05304E-03-3.85621E-04 1.99171E-04-2.63031E-03-5.30834E-04-1.74233E-03
 -1      1156 1.20701E-03-1.69805E-03-1.07994E-04-1.74809E-03-1.06605E-03-9.99639E-04
 -1      1157-1.45033E-08 5.43376E-08-1.70545E-08 5.55844E-09 1.67448E-08 2.21624E-09
 -1      1158-1.12741E-08 4.62952E-08-1.96886E-08 7.09859E-09 1.00301E-08 5.14721E-09
 -1      1159 8.90841E-05-2.41420E-04 9.80194E-05 3.73472E-05 7.47196E-06-1.42192E-05
 -1      1160 7.43147E-05 2.93140E-04 3.32617E-04-2.02099E-04 6.28231E-06-3.21861E-04
 -1      1161 5.90130E-05 4.59587E-05-2.50415E-05 3.63459E-05 3.38711E-05-2.78098E-05
 -1      1162 7.44981E-05 6.06808E-05-2.27549E-06 6.18970E-05 3.92975E-05 5.11220E-06
 -1      1163-3.07245E-06 1.96684E-05 2.59650E-06-1.79941E-06 2.96289E-06-6.79176E-07
 -1      1164 1.92735E-05 3.55955E-05-1.33448E-05 2.65024E-06 2.32604E-05-1.04559E-06
 -1      1165-3.32967E-08 1.02710E-07-1.36671E-08 8.27821E-09 6.43955E-08 5.30059E-09
 -1      1166-5.39911E-08 1.26420E-08 1.14694E-07 1.23953E-08 1.74106E-07 1.41188E-08
 -1      1167-8.13597E-08 2.24917E-07 1.07175E-07 3.05539E-08 3.28559E-07 1.45114E-08
 -1      1168-8.14315E-08 2.13021E-07 1.03602E-07 1.60791E-08 3.18668E-07-6.58942E-09
 -1      1169 5.11190E-07 2.62010E-06-9.45843E-07-2.70707E-06 2.15958E-06 3.51371E-06
 -1      1170-4.59531E-06 2.39510E-06-6.66356E-07-2.39662E-07 7.22696E-07-4.48404E-06
 -1      1171-1.50555E-07 3.77459E-07-7.05732E-09 6.27715E-08 4.07506E-07 9.96640E-09
 -1      1172-2.40522E-07 8.34978E-07-1.98725E-07 1.34070E-07 7.50080E-07-1.90307E-08
 -1      1173 6.53691E-04 1.42013E-04 2.56183E-04 7.93936E-04 1.09161E-04 4.53204E-04
 -1      1174-3.75869E-07 9.36161E-07 1.40596E-07 4.68290E-07 1.14440E-06 2.24641E-07
 -1      1175-3.71258E-07 8.57904E-07 7.10492E-08 1.17901E-07 1.01818E-06 4.71993E-08
 -1      1176-9.83319E-07-4.74818E-07 2.20834E-06 4.19353E-07 2.81822E-06 2.11640E-07
 -1      1177-3.77381E-07 1.89864E-06 1.35088E-06-6.74806E-07 2.43282E-06 7.55987E-07
 -1      1178-6.30657E-07 7.45785E-07 5.37357E-07 4.16218E-07 1.36823E-06 2.43847E-07
 -1      1179-4.04984E-06 3.58458E-05-3.31516E-06-2.53019E-07 1.74338E-05 2.05694E-05
 -1      1180-1.59969E-07 4.79550E-07-7.08759E-08 7.27951E-08 4.61942E-07 1.64247E-08
 -1      1181-4.62036E-07 1.62105E-06 1.67910E-06 2.19714E-06 2.97911E-06 2.78443E-06
 -1      1182-4.67562E-08 1.39204E-07-9.68835E-09 1.91924E-08 1.02020E-07 1.03649E-08
 -1      1183-7.11719E-07 6.19593E-07 8.87291E-07 9.22741E-07 1.62185E-06 5.91683E-07
 -1      1184 4.38149E-03-1.49762E-03-1.17603E-03 8.08328E-05 2.54943E-05-5.00975E-05
 -1      1185 5.25181E-03-1.72424E-03-1.36350E-03 1.99866E-04-2.99989E-05-2.76878E-05
 -1      1186 5.67979E-03-1.97380E-03-1.54087E-03 1.13187E-04 9.35222E-06-6.52549E-05
 -1      1187 6.13675E-03-1.75894E-03-1.76246E-03 6.70779E-05-3.09221E-07-4.90818E-05
 -1      1188 8.02434E-03-2.41702E-03-2.33394E-03 8.68923E-05-2.27901E-06 1.52919E-05
 -1      1189 8.50995E-03-2.48387E-03-2.48706E-03 2.09717E-05-8.01080E-06-2.46571E-05
 -1      1190 8.99695E-03-2.64782E-03-2.66475E-03 7.13052E-05 9.80799E-06 8.50305E-06
 -1      1191 9.30294E-03-2.73206E-03-2.81340E-03-2.18918E-05-3.60874E-05-2.32719E-05
 -1      1192 9.80290E-03-2.94576E-03-3.06871E-03 9.70242E-05-3.40473E-05-1.80187E-04
 -1      1193 1.08443E-02-3.15724E-03-3.81596E-03 2.39857E-04 1.03012E-04-8.97200E-04
 -1      1194 1.00400E-02-2.77014E-03-3.68243E-03 6.97753E-04-1.45424E-04-1.16946E-03
 -1      1195 1.59312E-02-5.66318E-03-3.00598E-03-9.55848E-04-8.68389E-04-9.76996E-04
 -1      1196 1.44637E-02-7.00640E-03-1.45495E-03-1.77142E-03 3.81451E-04 3.12590E-04
 -1      1197 1.38343E-02-3.46311E-03-2.73262E-03-3.93352E-04 2.42405E-04-5.23611E-05
 -1      1198 1.03937E-02-3.35539E-03-4.03464E-03-4.44165E-04-2.53340E-05 8.76109E-04
 -1      1199 1.11393E-02-2.80722E-03-3.79738E-03 3.56185E-04-3.14973E-05 7.11052E-04
 -1      1200 7.38199E-03-2.06391E-03-2.15017E-03 4.97353E-05-1.14506E-05-1.48999E-05
 -1      1201 1.45396E-02-4.46492E-03-2.65463E-03-4.62039E-04 3.28271E-04-5.84149E-04
 -1      1202 6.81886E-03-2.13372E-03-1.96457E-03 9.98541E-05-8.97945E-06 1.62156E-05
 -1      1203 1.00162E-02-3.01030E-03-3.44582E-03 2.41926E-04 9.72787E-05 8.88344E-05
 -1      1204 6.26512E-03-1.00712E-02-1.53195E-03 3.67833E-03 3.35580E-03-1.54739E-03
 -1      1205-1.68945E-09 4.56111E-09-6.27749E-10-3.55430E-10-3.45991E-09-2.36586E-10
 -1      1206 5.90733E-04-1.95253E-03 1.24265E-04-9.53175E-04-2.30105E-03-2.65033E-05
 -1      1207-2.26880E-09 7.40970E-09-2.94696E-09-1.28934E-09-6.38850E-09 1.80910E-11
 -1      1208-1.73571E-04-6.04242E-04-2.92346E-04-8.97727E-04-3.67846E-04-1.63132E-05
 -1      1209 3.40190E-04 4.02673E-04-3.13038E-04-1.05896E-03 2.14426E-04-6.92850E-04
 -1      1210-4.37576E-09 2.00610E-08-4.18566E-09-3.29733E-09-1.09347E-08 6.02657E-10
 -1      1211-3.80901E-09 1.85077E-08-4.81308E-09-2.39398E-09-1.01481E-08 6.47635E-10
 -1      1212-1.46570E-04 2.32546E-04 1.16436E-04 8.09038E-05 1.82773E-04 1.21316E-05
 -1      1213-2.35094E-04-5.97110E-04-2.67958E-05 5.49670E-04-1.09812E-04 7.48120E-05
 -1      1214-7.99813E-05-9.93006E-05 4.02786E-05 9.26226E-05 1.23034E-04 1.76351E-05
 -1      1215-9.29490E-05-1.48801E-04 3.91117E-05 1.27632E-04 1.22926E-04 6.00386E-06
 -1      1216 7.52050E-06-1.76439E-05-6.74804E-06 3.49708E-07-1.14101E-06-1.71688E-06
 -1      1217 4.71552E-06-6.84383E-05 2.36263E-05 1.03676E-05 8.50143E-05 8.39111E-06
 -1      1218 6.31500E-06-2.46858E-07-5.50597E-06-4.92119E-06-3.28346E-06-8.91812E-07
 -1      1219 5.35182E-06-4.69070E-07-5.91759E-06-5.22376E-06-4.42683E-06-3.10771E-06
 -1      1220 1.32698E-09 5.47868E-09-8.51261E-09-2.24431E-09-6.00648E-08-1.06686E-09
 -1      1221-7.64837E-09 1.22600E-07-2.47482E-08 4.32130E-08-1.00815E-07 2.27535E-08
 -1      1222-5.93906E-09 2.76536E-08-4.46475E-09-1.93924E-09-2.16467E-08 9.82769E-10
 -1      1223-1.72513E-03-3.53890E-04 2.92752E-04 1.45482E-03-7.45473E-05 4.11408E-04
 -1      1224 1.61522E-07-4.89485E-07-1.79043E-08 2.40532E-07-5.45045E-07 7.02429E-08
 -1      1225 2.23902E-07-8.22825E-07 2.19829E-07 5.27800E-07-9.80058E-07 2.93624E-07
 -1      1226 3.98429E-07-8.70193E-07 9.55512E-08-2.59435E-07-1.02565E-06 1.99895E-08
 -1      1227-1.34765E-06 1.59424E-07-3.49594E-07 1.24519E-06-2.21100E-07-1.68592E-07
 -1      1228 2.89737E-06-6.19191E-07-3.90366E-06 4.84495E-08-1.89489E-06 1.86932E-06
 -1      1229-3.46762E-07 8.89938E-07-2.57302E-07 1.64691E-06-2.17264E-06 5.75351E-07
 -1      1230-6.22851E-08 7.33534E-07-9.43448E-08-3.54800E-07-1.88381E-06-9.55599E-08
 -1      1231 7.81578E-05-5.73372E-05 1.27402E-05-3.31807E-05 5.58405E-05-9.09906E-07
 -1      1232 4.67858E-07 6.95591E-09-1.85951E-06-1.38165E-07-5.78590E-07-6.21886E-07
 -1      1233-9.53225E-09 3.28565E-08-4.25770E-09-5.59595E-09-2.97615E-08 1.40498E-09
 -1      1234-2.51984E-02 9.27687E-03 5.62204E-03 6.59460E-05 9.53768E-04-1.50226E-03
 -1      1235-2.35365E-02 6.62283E-03 7.50832E-03 1.38932E-04-4.11445E-04-1.20787E-03
 -1      1236-2.28365E-02 6.66387E-03 7.59308E-03 2.51295E-04-2.34403E-04-4.73045E-04
 -1      1237-2.20099E-02 6.34973E-03 6.90471E-03 3.19437E-04 9.40513E-05-2.84723E-06
 -1      1238-2.15792E-02 6.37300E-03 6.51589E-03 8.36828E-05 1.59958E-05 6.14824E-05
 -1      1239-2.08510E-02 6.37262E-03 6.25596E-03 4.11681E-05-4.37098E-05-9.35886E-06
 -1      1240-2.01608E-02 5.53494E-03 6.08493E-03 3.29570E-05 1.86466E-05 2.88563E-05
 -1      1241-1.86427E-02 5.81258E-03 5.62599E-03 6.51963E-05-5.47567E-05-8.90112E-06
 -1      1242-1.80964E-02 5.28713E-03 5.48896E-03 7.27992E-05 6.26685E-05-8.09996E-05
 -1      1243-1.73637E-02 5.28304E-03 4.93010E-03 2.38410E-04 7.49324E-05-3.57658E-05
 -1      1244-1.57357E-02 5.14779E-03 3.61515E-03 2.29229E-04-2.74748E-04-6.69163E-04
 -1      1245-1.91348E-02 5.40139E-03 5.75326E-03 8.39662E-05 3.82482E-05 3.61454E-05
 -1      1246-1.97398E-02 6.18781E-03 5.97321E-03-9.23196E-06-5.18022E-05 1.63531E-05
 -1      1247-2.33387E-02 6.65185E-03 7.72355E-03 7.62944E-05 1.74267E-04 7.25604E-04
 -1      1248-2.31947E-02 6.61176E-03 7.36226E-03 2.63438E-04 4.45094E-04 7.79429E-04
 -1      1249-2.52413E-02 1.11292E-02 5.52894E-03-6.50004E-04-3.30732E-04 1.45063E-03
 -1      1250-2.64152E-02 8.59531E-03 7.65764E-03 6.71150E-04-2.66287E-04-1.01885E-04
 -1      1251-2.12273E-02 6.12413E-03 6.39157E-03 3.19860E-05-5.18682E-05-2.17373E-05
 -1      1252-2.23386E-02 6.71510E-03 7.12181E-03 2.85530E-04-5.45861E-05 3.56925E-04
 -1      1253-2.68837E-02 9.61690E-03 7.45111E-03-4.23412E-04 4.02498E-04 2.20091E-04
 -1      1254 1.69014E-03-5.10477E-03 1.20282E-03-2.98142E-05 1.72437E-04 2.17770E-04
 -1      1255 1.77613E-03-5.27894E-03 1.21449E-03 9.70516E-05 6.18922E-05-1.10110E-05
 -1      1256 1.41866E-03-4.74066E-03 1.23623E-03 3.36848E-05 3.19427E-05 1.65882E-05
 -1      1257 1.21897E-03-4.21269E-03 1.20323E-03-3.76027E-05 3.48615E-06-4.80137E-06
 -1      1258-2.16359E-04 8.97971E-04-2.70005E-04 7.14870E-06 2.29636E-05 8.21790E-05
 -1      1259-3.91467E-04 1.63211E-03-4.51541E-04 5.44524E-05 5.37584E-05 4.67973E-06
 -1      1260-7.25858E-04 2.21786E-03-4.55690E-04 6.03877E-05 3.24648E-05-1.24625E-05
 -1      1261-7.79842E-04 2.43425E-03-6.28968E-04-2.57569E-05-3.23835E-05-7.21097E-05
 -1      1262 1.10160E-03-3.60082E-03 9.54397E-04-4.95212E-07-1.01098E-05 2.35476E-05
 -1      1263 7.11463E-04-2.46369E-03 6.96145E-04 1.14977E-04 6.14311E-05-4.02120E-05
 -1      1264 3.16504E-04-9.02080E-04 2.45414E-04 1.09525E-05 4.37673E-05 1.73606E-05
 -1      1265-7.51861E-05 1.76518E-04 3.73266E-06-1.69804E-05-8.12916E-06-3.99863E-05
 -1      1266 5.09807E-04-1.74066E-03 5.32890E-04-7.63874E-05-7.74696E-06-2.44798E-05
 -1      1267 6.25290E-03-2.04190E-03-1.38233E-03 1.00353E-04-2.16066E-04 2.35511E-04
 -1      1268 6.06715E-03-1.76314E-03-1.65721E-03 1.64922E-04 6.13099E-06-1.25375E-05
 -1      1269 4.87539E-03-1.48691E-03-1.44698E-03 1.05008E-06-6.41839E-05-1.25275E-05
 -1      1270 3.52152E-03-4.65381E-04-1.15329E-03-1.03097E-04-3.07379E-05 6.55617E-05
 -1      1271-2.88442E-03 3.16852E-04 7.47204E-04-4.56710E-05-3.13643E-05-1.72636E-04
 -1      1272-4.10292E-03 1.34364E-03 8.96241E-04-2.19620E-05 6.87400E-05-1.18521E-04
 -1      1273-4.72230E-03 1.19861E-03 1.14276E-03-2.21114E-05-1.30724E-04-1.75629E-04
 -1      1274 2.46687E-03-1.22235E-03-7.91577E-04-1.22337E-04-1.09948E-04 3.47426E-05
 -1      1275 1.36224E-03 5.83936E-04-5.19199E-04-2.26423E-05 6.99487E-05 3.07719E-06
 -1      1276-1.55155E-03 8.49164E-04 3.61664E-04-1.14569E-04 6.47147E-05 1.06111E-05
 -1      1277-5.99497E-04-5.89860E-04 1.56659E-04-1.06955E-04-6.67080E-05-4.12560E-06
 -1      1278 4.07604E-05 3.80674E-04-7.79593E-05-4.18657E-05 5.29818E-05 9.04048E-05
 -1      1279 9.38449E-04-7.96118E-04-3.51459E-04 1.10534E-05-7.39671E-05 1.82426E-05
 -1      1280 5.73123E-04 5.16469E-04-2.54246E-04-8.10900E-05 5.80726E-05 5.11050E-05
 -1      1281 3.82042E-04-5.29035E-04-1.95560E-04-3.60648E-05-4.24819E-05 4.61784E-05
 -1      1282-5.23193E-04 1.20350E-03 5.61890E-04-2.10921E-04 8.39771E-05-2.44253E-04
 -1      1283 1.06571E-04 8.82473E-04-4.75641E-04-1.45043E-04-1.19574E-04-2.98474E-05
 -1      1284-1.66529E-04 7.80182E-04-5.44682E-04 5.64879E-05 6.09400E-05-2.56771E-05
 -1      1285 8.79704E-05 1.49631E-04-4.51818E-05-5.85328E-05 8.81772E-06-3.40559E-05
 -1      1286-6.40792E-05 1.14315E-04-5.28496E-05-2.91526E-05-2.03672E-05-4.73959E-06
 -1      1287-7.28922E-05 1.05218E-04 9.72094E-05 9.64810E-06 5.94743E-06 3.50525E-05
 -1      1288-2.67899E-04 1.05301E-03-6.51380E-04 4.33312E-05-1.21092E-04-2.27477E-04
 -1      1289-8.24003E-05 5.44695E-05-4.30200E-06 2.20083E-05 2.28922E-05 9.67820E-06
 -1      1290-9.29125E-05 3.73368E-04-1.19923E-04-2.19568E-05-6.30297E-05 1.14444E-04
 -1      1291-6.97873E-06 2.37752E-05-8.19083E-06-8.49429E-07 1.04864E-06-8.94904E-07
 -1      1292-2.31596E-05 7.50534E-05-1.45237E-05-1.03681E-06 1.25269E-05 4.56427E-06
 -1      1293 1.27705E-05 7.17745E-06-1.27950E-05-5.76839E-06-6.20664E-06-3.75564E-06
 -1      1294-6.54870E-06 2.06893E-05-5.04538E-06 1.37714E-06 5.31621E-07 5.17199E-06
 -1      1295-4.90709E-03 1.98817E-03 1.09568E-03 3.20339E-04 1.70072E-05 1.08722E-04
 -1      1296 1.54845E-03-1.65100E-04-1.03589E-03-2.29839E-04 1.01856E-04 4.80252E-06
 -1      1297-6.73160E-03 2.03313E-03 1.95159E-03 4.30177E-05-8.26365E-06-3.30466E-05
 -1      1298-6.68359E-03 1.80383E-03 1.85732E-03-2.51811E-05-2.46546E-05-2.58468E-05
 -1      1299-5.44956E-03 1.77574E-03 1.53008E-03-3.08755E-07-1.55729E-04 8.39060E-06
 -1      1300 1.52689E-03-9.61953E-05-5.79820E-04-5.24077E-05 2.79759E-04 1.84737E-05
 -1      1301 2.65689E-03-7.01090E-04-9.21112E-04-5.39734E-04-2.08962E-04 5.47144E-05
 -1      1302 3.89255E-03-7.76083E-04-1.21197E-03 5.78233E-05 1.25466E-04-4.27115E-05
 -1      1303 4.78346E-03-1.56436E-03-1.25528E-03 1.26272E-04-8.90240E-05 7.40363E-05
 -1      1304 4.19215E-03-1.51881E-03-9.39812E-04 7.23551E-05-6.13903E-05-8.00197E-05
 -1      1305 4.35632E-04 1.24917E-04-2.80093E-04-4.20616E-04-3.07420E-04-1.13567E-05
 -1      1306-4.04862E-03 6.60975E-04 1.15428E-03-3.45391E-04 6.56433E-05-3.07606E-05
 -1      1307-2.71395E-03 8.87505E-04 7.58606E-04-1.16188E-04-1.71412E-04-4.72979E-05
 -1      1308-2.39503E-04 2.25902E-04-5.46402E-05-7.87660E-05 2.34404E-04-3.91319E-05
 -1      1309-6.95434E-04 4.29149E-04 1.01203E-04-2.03848E-04-2.00852E-04-2.99825E-05
 -1      1310-1.85379E-03 9.63403E-05 5.58505E-04-1.74170E-04 1.49821E-04 4.39495E-05
 -1      1311-1.22414E-03 4.29118E-04 3.28414E-04-1.14764E-04-1.88317E-04-2.75377E-05
 -1      1312-9.49288E-04 1.39430E-04 2.16050E-04-8.94580E-05 1.48242E-04-2.87787E-05
 -1      1313-3.78474E-05-6.80961E-04 1.61575E-04-1.51336E-03-2.57185E-04 4.91829E-04
 -1      1314-2.49741E-04 6.86232E-04-2.54700E-04-1.64676E-03-8.07755E-05-1.48687E-04
 -1      1315-2.86140E-04 4.14713E-04-9.65479E-06-5.11055E-04 2.07783E-04-8.39598E-05
 -1      1316 3.48208E-04-1.75144E-04-8.52971E-05-5.10897E-04-7.93197E-05-7.03710E-05
 -1      1317 6.41584E-05-8.46120E-05 1.62012E-06-3.21221E-04 1.01019E-04-1.16598E-05
 -1      1318 3.97533E-04-1.94354E-04-1.16055E-04-4.77040E-04-6.23750E-05 3.13958E-05
 -1      1319 1.50718E-05-7.22836E-06 1.30351E-06-3.78052E-04 7.06790E-05 5.74506E-05
 -1      1320 3.74767E-04-1.59058E-04-1.12069E-04-4.93325E-04-4.26965E-05-2.50395E-06
 -1      1321 7.02492E-05-2.88190E-05-6.80562E-05-4.12409E-04 6.17513E-05 4.71740E-05
 -1      1322 1.24527E-04-1.15752E-05-2.10905E-05-5.08721E-04-1.91003E-05 2.66690E-05
 -1      1323-6.96394E-05 3.27333E-04 1.53244E-05-3.28005E-04-4.56323E-05 4.32069E-05
 -1      1324-1.19728E-02 3.07653E-03 3.75668E-03-3.33274E-04 1.94132E-05 2.03064E-04
 -1      1325-1.25260E-02 3.60781E-03 3.76395E-03-5.05006E-04 6.72256E-06 1.26692E-05
 -1      1326-1.23800E-02 3.72307E-03 3.70441E-03-3.94472E-04-2.43714E-05 8.74432E-05
 -1      1327-1.27855E-02 3.78936E-03 3.81911E-03-4.25760E-04 1.52150E-04-1.27154E-04
 -1      1328-1.23122E-02 3.66123E-03 3.71551E-03-4.63510E-04 1.26383E-04 1.23238E-04
 -1      1329-1.28595E-02 3.96131E-03 3.79964E-03-3.11455E-04 7.42781E-05-1.07993E-04
 -1      1330-1.23618E-02 3.64816E-03 3.71237E-03-2.49303E-04 8.31244E-05 1.11469E-04
 -1      1331-1.27674E-02 3.86638E-03 3.84512E-03-3.25091E-04-8.06293E-05-7.88491E-05
 -1      1332-1.23608E-02 3.63885E-03 3.65883E-03-3.73092E-04 1.43418E-04 4.37887E-05
 -1      1333-1.29253E-02 3.86139E-03 3.91001E-03-4.61805E-04 1.78249E-04 5.18319E-05
 -1      1334-1.21290E-02 3.32850E-03 3.86016E-03-6.99367E-04 2.10083E-04 2.44563E-04
 -1      1335-1.21093E-02 3.39546E-03 3.89091E-03-1.36712E-03 1.11663E-04-2.33990E-05
 -1      1336-1.10716E-02 2.40834E-03 3.56732E-03-1.73560E-03-2.61888E-04-1.27164E-03
 -1      1337 1.05334E-04 9.78978E-05-1.98822E-04-2.57479E-03 3.44222E-04 1.82518E-04
 -1      1338-1.92758E-03 1.68241E-03 2.78285E-05-1.67218E-03 1.57341E-04 1.74754E-04
 -1      1339-1.81799E-04 4.24824E-05 1.81834E-04-2.30319E-04-1.26959E-04-1.34354E-04
 -1      1340 6.09561E-04-4.74999E-04-5.04847E-05 6.17583E-04 5.53432E-05 5.27949E-05
 -1      1341-3.79752E-04 1.89365E-04 8.18536E-06 3.76937E-04-3.08145E-05 4.09397E-05
 -1      1342 2.29718E-04-5.26826E-04 1.72365E-04 3.69041E-04-1.42613E-05 7.54452E-05
 -1      1343-2.14137E-04 6.57820E-05 5.32292E-05 5.73178E-04 1.45643E-05 1.77073E-05
 -1      1344 3.00921E-04-3.51513E-04 4.04581E-05 6.63355E-05-6.71858E-05 1.24286E-04
 -1      1345-1.00375E-02 2.21892E-03 3.72887E-03 5.65720E-04-3.21939E-04-7.76621E-04
 -1      1346-3.01054E-03 5.01974E-04 1.10217E-03 2.54442E-04 3.56597E-05 7.18063E-04
 -1      1347 1.89915E-04-1.72004E-04-1.35052E-04 3.49495E-04 5.69262E-05-2.44820E-04
 -1      1348-2.32831E-05 9.49240E-05-1.61626E-05 2.12951E-05 2.32303E-05-1.49011E-05
 -1      1349-1.22268E-04 1.99471E-04-2.13880E-06 1.42032E-04 1.72116E-05 8.37123E-06
 -1      1350 8.98006E-05 2.97168E-04-1.68398E-04 5.79717E-04 9.00183E-05 6.51338E-05
 -1      1351 1.28342E-03-2.28206E-04-6.39377E-04 5.59825E-04-2.57373E-04-3.59635E-04
 -1      1352 2.85067E-03-7.42067E-04-8.99589E-04 2.36319E-04-1.34440E-04 1.81999E-04
 -1      1353-1.22469E-05-3.72232E-04 1.44786E-04-8.97046E-04 7.51670E-05 2.52050E-04
 -1      1354-1.38380E-03 1.27090E-03 2.10062E-04-6.70369E-04-1.09043E-04 1.45895E-04
 -1      1355-4.66383E-04 4.51057E-04-5.97942E-05-6.06953E-05 3.68866E-04 8.96270E-05
 -1      1356 5.37156E-04-5.02509E-04-3.79367E-05 8.12693E-04-3.92574E-05 7.03901E-06
 -1      1357-6.08867E-04 3.82801E-04 3.60839E-05 7.43323E-04-3.48617E-04-1.65960E-04
 -1      1358 1.38998E-05 1.91713E-04-8.48178E-05 1.14709E-03-1.43651E-04-9.70050E-05
 -1      1359 1.27001E-03-1.55382E-03 1.45103E-04-1.98415E-03 1.31922E-04 1.34698E-04
 -1      1360 2.04812E-05 1.15863E-05-1.13536E-05 2.99555E-05 1.31016E-06 3.00312E-06
 -1      1361 3.25320E-04-2.14497E-04-9.01725E-05-4.17799E-04-3.49939E-05-2.87864E-05
 -1      1362 3.46385E-05-5.29229E-05 8.58877E-06-2.93586E-04 1.00168E-04 3.17622E-05
 -1      1363 5.22953E-03-6.04804E-04-1.82770E-03-9.75092E-03-3.44232E-04 2.93313E-03
 -1      1364-4.79392E-04 4.61855E-04-1.56407E-03-1.75186E-03-1.68191E-04-2.06999E-04
 -1      1365-1.47546E-02 3.62590E-03 5.27483E-03-2.42141E-03 2.07743E-04-6.72998E-04
 -1      1366-1.75065E-02 6.71111E-03 5.36303E-03-5.56623E-03 2.07190E-04 6.44903E-04
 -1      1367 3.18177E-04-1.99974E-04-1.54893E-04-7.80666E-05 8.69162E-05-1.08185E-04
 -1      1368-6.98860E-04 4.30680E-04 7.41123E-05 8.67432E-04-6.68345E-05-1.17989E-04
 -1      1369 1.87855E-04 1.29613E-04-1.22523E-04 8.89412E-04 1.33528E-04-6.30984E-05
 -1      1370 1.54494E-04-1.05358E-03 3.27275E-04 1.10248E-04 3.21016E-04 5.78147E-05
 -1      1371 1.31567E-04 3.90985E-05-1.04542E-04 4.67289E-04-7.27608E-05 2.16586E-05
 -1      1372-2.72123E-04 2.48080E-04-3.65788E-05 5.67045E-04-7.20763E-05 8.39050E-05
 -1      1373 4.55265E-04-5.76867E-04 1.12243E-04 2.88348E-04-6.17587E-05 4.31586E-05
 -1      1374-7.53129E-05 6.39030E-05-5.09974E-05-1.00930E-04-1.18752E-05 6.14677E-06
 -1      1375 1.98728E-04-2.68819E-04 9.74227E-05 6.71194E-04 4.25883E-05 4.05126E-05
 -1      1376-5.50203E-04 3.71398E-04 8.23180E-05 5.39240E-04-8.84662E-05-3.06857E-04
 -1      1377 1.17467E-03-8.91653E-04-1.66284E-04-8.28442E-04 1.32062E-04-1.76802E-04
 -1      1378 1.89415E-04-6.68417E-05-9.09713E-05-4.12323E-04 3.23841E-05-1.12854E-04
 -1      1379-5.40416E-03 2.18894E-03 1.27319E-03 3.32844E-05 2.67254E-04 4.67375E-04
 -1      1380-4.86597E-03 2.12533E-03 1.39214E-03 9.90664E-04-9.98031E-05-5.53562E-04
 -1      1381-6.77909E-03 1.75596E-03 2.31786E-03 1.39647E-03 1.65367E-04-6.56556E-05
 -1      1382-6.50007E-03 9.44037E-04 2.55561E-03 4.40484E-04-3.02207E-04 6.68687E-04
 -1      1383 7.02849E-07 1.23811E-05-2.55665E-06 1.01367E-05 4.34051E-06 7.91090E-08
 -1      1384-3.76533E-05 5.91847E-06 2.77771E-05-5.48915E-06 1.72914E-05 1.76580E-05
 -1      1385-5.23697E-04 3.22007E-04 2.71567E-05 3.25976E-04-3.05291E-04-3.53887E-05
 -1      1386 1.56065E-05-1.93224E-04 1.36807E-05 2.18026E-04 2.06763E-04 1.82528E-04
 -1      1387 4.83396E-03-5.37069E-04-1.09500E-03-1.77779E-03-3.50724E-04 1.64119E-04
 -1      1388 4.86294E-03-1.12364E-03-1.58499E-03-1.10098E-03-3.42442E-05 7.02062E-06
 -1      1389 6.35132E-05 1.38225E-05-7.18518E-05 3.35180E-04-4.32365E-05-1.02760E-04
 -1      1390 4.15404E-04-5.12831E-04 1.14357E-04 1.76814E-04-4.45709E-06-5.81202E-05
 -1      1391 6.32200E-04-6.23108E-04 2.70645E-05 3.53481E-04 2.84873E-06 7.97282E-06
 -1      1392-1.60587E-03 1.91565E-03 1.94024E-04-1.75561E-03 5.85324E-04 1.46638E-03
 -1      1393-9.70928E-07 1.00168E-05-4.72183E-06-2.06066E-06 2.84384E-07-1.27099E-06
 -1      1394-2.82231E-04 9.83065E-05 2.76186E-05 2.41613E-04-4.30985E-05 6.77063E-05
 -1      1395-2.98019E-04 2.05357E-04 7.44052E-05 3.85079E-05-3.98486E-05-1.33115E-04
 -1      1396-1.75066E-02 4.77310E-03 5.06661E-03-1.59047E-03 5.52820E-05 1.08495E-05
 -1      1397-1.22355E-02 2.65627E-03 4.14254E-03-1.25464E-03 3.24271E-05-4.62021E-04
 -1      1398-1.39484E-02 7.36888E-03 3.07559E-03-1.05833E-02-4.10141E-04 3.72178E-03
 -1      1399-7.54046E-03-1.12998E-03 4.48825E-03-1.53693E-02 1.45380E-03 9.11982E-03
 -1      1400-1.83791E-02 4.90510E-03 6.31016E-03-1.04453E-03-5.76752E-05 1.62916E-04
 -1      1401-8.20795E-03 4.35109E-04 2.41219E-03-1.73629E-03 6.42983E-04-4.10778E-04
 -1      1402-4.58123E-03 3.39176E-03 6.27122E-04-7.52362E-04-4.05836E-04-3.64046E-03
 -1      1403-7.53895E-05-1.29195E-05-4.57730E-06-1.70762E-05 8.96815E-05 1.48148E-05
 -1      1404-3.25758E-04 3.17167E-04 6.48758E-06 1.54603E-05-1.10015E-04 9.73870E-05
 -1      1405-5.88086E-03 2.27703E-03 1.16600E-03 1.00047E-03 9.49653E-06-6.22501E-04
 -1      1406-5.87674E-03 2.47861E-03 1.37536E-03 1.95155E-03 2.64631E-05 5.28565E-04
 -1      1407-8.37557E-03 1.78254E-03 2.76783E-03-1.14254E-04-7.85778E-05 6.38070E-05
 -1      1408-7.03069E-04 8.41835E-04-9.65853E-05-1.59257E-03-8.55999E-05 9.47608E-05
 -1      1409 3.65070E-04-2.69299E-04 2.49801E-05-1.62759E-03-1.79538E-04 1.76271E-04
 -1      1410-3.32760E-05-1.71161E-04 9.45601E-05-3.71122E-04-4.18149E-05 6.88138E-05
 -1      1411 4.43617E-04-1.02256E-04-1.58042E-04-6.05785E-04 5.36012E-05-6.02807E-06
 -1      1412-8.06355E-05-1.31942E-05 4.35381E-05-4.41592E-04 1.08110E-04-5.61198E-05
 -1      1413 4.26130E-04-3.57982E-04-7.42171E-06-3.36816E-04-3.98189E-06 8.37949E-05
 -1      1414-1.76507E-05-2.53822E-05 2.09055E-05-4.30040E-04 6.36963E-05-3.13915E-05
 -1      1415 3.74955E-04-1.99481E-04-4.52669E-05-4.29013E-04 2.94600E-05 6.11283E-05
 -1      1416-6.22043E-05 6.90005E-05 5.77024E-05-2.60658E-04-1.16106E-06-7.87442E-05
 -1      1417 2.92896E-04-1.40080E-04-1.97251E-05-4.04272E-04 2.01342E-05 1.55056E-05
 -1      1418-1.27153E-02 3.74957E-03 3.84137E-03-4.90024E-04-7.88000E-05 3.75038E-05
 -1      1419-1.24451E-02 3.70386E-03 3.70106E-03-3.60554E-04-8.10265E-05-5.86222E-05
 -1      1420-1.28129E-02 3.87101E-03 3.81605E-03-2.93035E-04-5.03964E-05 7.42242E-05
 -1      1421-1.23625E-02 3.61184E-03 3.72195E-03-3.15253E-04 2.15941E-05-1.97086E-05
 -1      1422-1.29050E-02 4.10519E-03 3.83229E-03-3.39345E-04 1.00344E-04-8.41474E-05
 -1      1423-1.23756E-02 3.57414E-03 3.76537E-03-3.40359E-04 2.41568E-05-9.88313E-06
 -1      1424-1.29886E-02 3.77767E-03 3.82763E-03-8.78405E-04-1.83648E-04-3.41451E-04
 -1      1425-1.22783E-02 3.70301E-03 3.79094E-03-3.06248E-04 1.10946E-04-1.78339E-04
 -1      1426-1.17698E-02 2.79518E-03 3.80876E-03-1.69186E-03-2.57301E-04 6.00360E-04
 -1      1427-1.21326E-02 3.72664E-03 3.69662E-03-1.73901E-03 1.14399E-04 5.15571E-04
 -1      1428-1.90001E-03 1.25307E-03 2.91993E-04-1.64200E-03-5.82316E-04 8.50985E-05
 -1      1429-3.59061E-04 1.37851E-04 1.95943E-04-2.24604E-03-3.26324E-04-2.66283E-04
 -1      1430 4.37999E-04-4.54824E-04-9.53047E-06 8.23248E-04 4.54212E-05 1.17300E-06
 -1      1431-1.76656E-04 3.43901E-05 1.10376E-04-2.39684E-04-8.52993E-05 4.96362E-04
 -1      1432 2.32468E-04-4.38016E-04 4.26221E-05 4.16513E-04 3.79998E-06-3.30665E-05
 -1      1433 2.84894E-04-3.46854E-05-1.08458E-04 4.53871E-04-5.61654E-05 1.45844E-05
 -1      1434 5.81857E-05-3.67770E-04 1.04636E-04 4.29451E-04-5.12327E-05 1.57537E-05
 -1      1435 1.20689E-04-2.50821E-04 9.12062E-05 5.09860E-04-4.59708E-05 2.22661E-05
 -1      1436 1.84311E-04-2.33556E-04 4.93127E-05 2.59973E-05 4.36075E-05-2.25850E-04
 -1      1437-1.60938E-04 7.82591E-06 6.23616E-05 6.62276E-04-1.17966E-05 1.19059E-05
 -1      1438 1.41505E-03-1.09459E-03-1.63371E-04-1.19108E-03-3.82337E-05 1.61474E-04
 -1      1439-9.74909E-03 2.16655E-03 2.96566E-03 1.54945E-03-4.69726E-04 8.83515E-04
 -1      1440-2.74663E-07 1.01315E-04-1.24253E-04-1.39083E-04 2.06724E-05 2.72507E-05
 -1      1441 4.28658E-04-1.12622E-04-1.27214E-04-2.35106E-04-4.77037E-05 2.02587E-05
 -1      1442-1.67912E-04 1.68388E-04-1.25763E-05 1.17364E-04 2.58532E-05-1.11263E-05
 -1      1443-2.19264E-05 8.58950E-05-3.65194E-05 4.46290E-05 2.42058E-05 2.87653E-05
 -1      1444 1.19659E-03-1.74297E-04-6.44026E-04 5.83589E-04 2.34555E-04 4.42221E-04
 -1      1445 3.86947E-05 4.04440E-04-2.04836E-04 6.03800E-04-1.12004E-04-1.90072E-05
 -1      1446-2.84112E-06-5.66093E-04 1.84721E-04-1.05227E-03-2.77046E-05-5.51939E-05
 -1      1447 2.98511E-03-7.27586E-04-8.66235E-04 3.14901E-04-9.00792E-05-3.09807E-04
 -1      1448-1.24844E-03 1.21397E-03 5.09186E-05-7.89376E-04 7.20814E-05-1.58839E-04
 -1      1449 3.12617E-04-2.31403E-04-1.58304E-05 5.72969E-04-5.02161E-04 2.61138E-04
 -1      1450-7.51104E-04 3.37631E-04 1.07337E-04 8.78198E-04-1.38716E-04-2.18939E-04
 -1      1451 1.20665E-04-3.71441E-05 7.74195E-05 1.27816E-04 4.79032E-04-3.05344E-04
 -1      1452-6.72602E-04 5.96465E-04-6.34245E-05 1.18452E-03 1.55782E-04 6.02812E-04
 -1      1453 8.20658E-04-1.67609E-03 3.76975E-04-1.04109E-03-3.03078E-04-2.24212E-04
 -1      1454 2.69512E-05 1.26079E-05-1.58440E-05 3.63384E-05 6.76831E-06 3.16719E-06
 -1      1455-3.45506E-05 1.49039E-05 4.17746E-05-1.88140E-05-3.10864E-05 3.14117E-06
 -1      1456 3.64247E-04-3.43525E-04-1.53818E-04 2.00496E-04-1.69866E-04 1.46351E-04
 -1      1457-2.62554E-03-2.90151E-05 1.23283E-03 6.28928E-04 3.05351E-04-5.72818E-04
 -1      1458-6.40097E-04 6.54242E-04-7.12486E-05 5.59838E-04 5.48542E-05-8.41998E-05
 -1      1459 2.88844E-04-4.07156E-04 3.86194E-05 9.14104E-04-2.80546E-04 1.04779E-04
 -1      1460-5.64716E-04 6.18778E-04-5.63966E-05 1.92381E-04-2.82652E-04 3.47594E-05
 -1      1461-1.28278E-02 3.93498E-03 3.84070E-03-4.36969E-04-4.77995E-05 5.93821E-05
 -1      1462-1.23372E-02 3.57955E-03 3.75812E-03-4.58155E-04-5.01456E-05-6.08907E-05
 -1      1463-1.76233E-02 4.98896E-03 5.35881E-03-8.37751E-04-1.08609E-04-5.23435E-05
 -1      1464-1.73440E-02 4.92266E-03 5.31754E-03-5.09070E-04 4.19255E-05-1.32765E-04
 -1      1465-1.56817E-02 4.15653E-03 4.89715E-03-1.62449E-03-1.65986E-04 3.72902E-04
 -1      1466-1.64085E-02 4.51548E-03 5.43397E-03-1.03407E-03-7.60284E-05-4.01131E-04
 -1      1467-1.22004E-02 3.03312E-03 4.11436E-03-4.72367E-04-2.11967E-04-7.26855E-04
 -1      1468-1.53372E-02 5.37763E-03 4.52347E-03-3.62224E-03 5.52138E-04 3.91580E-04
 -1      1469-1.38083E-02 3.76281E-03 5.01177E-03-2.49055E-03-2.09688E-03 3.85969E-04
 -1      1470-1.05897E-02 1.98382E-03 4.65704E-03-5.57624E-04-8.01424E-04-1.71928E-03
 -1      1471 3.34374E-03 2.90003E-04-2.77998E-03-1.75444E-03 3.04209E-03 5.60293E-03
 -1      1472 3.12769E-03-1.57880E-03-5.83224E-04-8.52337E-03-1.91135E-03-5.00866E-03
 -1      1473 6.08234E-03-1.25858E-03-2.17547E-03-1.03856E-03-8.48731E-05 3.49763E-04
 -1      1474 5.27415E-03-8.66577E-04-1.71892E-03-1.28271E-03-3.59199E-05 2.21877E-04
 -1      1475 4.79460E-04 1.07010E-03-6.69626E-04-9.65896E-04 3.63016E-04-7.39337E-04
 -1      1476-1.54732E-04 4.26030E-04-2.78814E-05-4.48397E-04 5.31656E-06 2.15395E-04
 -1      1477-8.73634E-05 2.67831E-05 2.84080E-05-3.17697E-04 7.88077E-05-5.09408E-05
 -1      1478 4.10989E-04-4.09928E-04-4.64573E-06-2.77179E-04 2.23125E-06 2.17200E-05
 -1      1479-1.25935E-02 3.50671E-03 3.79454E-03-4.24871E-04 1.00924E-04 8.09073E-05
 -1      1480-7.43275E-03 1.65018E-03 2.37543E-03-5.35233E-05 7.60576E-05-2.29519E-04
 -1      1481-7.65904E-03 1.65767E-03 2.63016E-03 4.63323E-04-5.67058E-04-4.95260E-04
 -1      1482 1.74724E-04-4.36232E-04 1.31240E-04 7.32360E-04-1.06486E-05 2.43618E-05
 -1      1483-8.58454E-06 5.77819E-05-1.37694E-04 3.88465E-04 7.50305E-05 6.46332E-05
 -1      1484 2.37001E-06 1.48392E-05-3.52991E-06 9.90555E-06-3.29569E-06 2.82015E-06
 -1      1485 3.61185E-04-1.19146E-04-6.70499E-05 5.59620E-04-2.82532E-04-2.08905E-05
 -1      1486-4.26115E-04 1.58588E-04 2.12085E-05 8.51454E-04 2.38692E-04 5.73604E-04
 -1      1487-6.13583E-03 1.20958E-03 2.73990E-03 1.17422E-03 4.92239E-04-5.66343E-04
 -1      1488-7.26156E-03 1.98198E-03 1.81534E-03 1.56568E-03-1.42858E-04-1.03892E-04
 -1      1489-4.37966E-03 1.91645E-03 1.28518E-03 1.36602E-03-4.32817E-04-7.48951E-04
 -1      1490-4.74753E-03 2.44097E-03 8.74966E-04 2.22453E-04-1.04349E-04-3.69173E-04
 -1      1491-2.31951E-04 1.11820E-04 2.52870E-05 3.77542E-04 1.30960E-04-1.20345E-04
 -1      1492 9.74081E-05-1.28449E-04 2.80620E-05 2.91654E-04-6.79685E-04 2.95738E-04
 -1      1493-3.42919E-04 2.73278E-04-5.11285E-05 2.57901E-04 2.25167E-04 2.88571E-04
 -1      1494 3.34967E-04-4.53327E-04-2.05569E-05 6.47061E-04 8.37543E-06-4.00600E-05
 -1      1495-7.30038E-03 1.77216E-03 2.34336E-03 2.50141E-04 7.59100E-04 4.69530E-04
 -1      1496-7.41057E-03-3.06229E-03 3.83736E-03-1.61590E-02-4.81972E-05-2.65745E-03
 -1      1497-9.29529E-03 6.96952E-03 3.27417E-03-9.44394E-03-7.36034E-04-2.30656E-03
 -1      1498-8.05070E-03 2.14780E-03 2.69370E-03-2.82592E-04-1.95987E-04-5.80678E-04
 -1      1499-3.72486E-03 1.62841E-03 6.18320E-04-3.31032E-04 2.35310E-04-6.36584E-04
 -1      1500 1.35339E-06 1.22050E-05-1.40373E-05-7.85962E-06 2.34085E-06-5.14926E-07
 -1      1501-9.49218E-05 8.35959E-05-2.02661E-05 4.80778E-05-3.92728E-04 1.90243E-04
 -1      1502 1.75897E-05-7.72062E-05 3.84301E-06 3.56757E-05-2.81758E-04 8.41802E-05
 -1      1503-3.55348E-04 3.22830E-04-1.01199E-05 1.15793E-04 1.72583E-04-1.60132E-05
 -1      1504-4.01862E-03 3.33607E-03 7.88144E-04-1.35073E-03 1.44240E-03 3.04031E-03
 -1      1505-8.04629E-03-1.33577E-03 2.96451E-03-8.46020E-04-9.72287E-04-4.76193E-04
 -1      1506-3.50979E-04 6.07815E-04-2.33000E-04 5.21531E-04 1.18709E-05-2.65527E-05
 -1      1507 5.01557E-04-1.25102E-03 3.86808E-04 5.87137E-04 2.23457E-04 1.26287E-05
 -1      1508 3.38377E-05-4.13101E-04 1.27339E-04 1.93401E-04 2.09415E-05 3.61765E-06
 -1      1509-6.46523E-05 5.98562E-04-1.78252E-04 3.25696E-04-2.25215E-04 2.10283E-05
 -1      1510 1.55421E-04-7.25390E-04 2.21679E-04 1.46982E-04-4.59076E-06 1.68037E-05
 -1      1511-5.91951E-04 1.15304E-03-2.35308E-04 6.33236E-05-5.59117E-05-3.44617E-05
 -1      1512-1.99675E-04 1.61156E-04 6.93907E-05 2.15974E-04 1.21595E-05 5.96908E-06
 -1      1513-1.32005E-03-9.93951E-10-7.25737E-10-2.53363E-04 4.80077E-11 1.60270E-04
 -1      1514-8.44645E-05 1.73639E-06 3.80040E-07-1.81428E-04 1.09210E-06-8.71255E-05
 -1      1515-1.61029E-04-1.08659E-05 1.91586E-06 6.52144E-04-6.36511E-06 1.99401E-04
 -1      1516-4.00952E-04 1.39135E-06-1.19331E-07 2.10870E-04 9.38389E-07 1.24776E-04
 -1      1517 5.35998E-04 1.57324E-05-1.86885E-06-1.73439E-04 1.50988E-05-4.78258E-05
 -1      1518 8.75634E-06 7.51329E-06-3.57095E-06 6.49030E-05 3.67737E-06 1.84610E-05
 -1      1519 3.89194E-04 2.20793E-05 4.95252E-10 3.84328E-05 3.63458E-06 7.02260E-05
 -1      1520-1.32526E-05 2.56641E-06 1.23272E-07 1.26882E-04-7.98398E-07-5.00053E-05
 -1      1521-1.86713E-05-1.68270E-11-1.02687E-10 1.68031E-05-1.08428E-11-1.63606E-05
 -1      1522 1.53634E-05-3.61482E-06 3.98555E-06 3.10883E-05-1.99958E-06 2.80903E-05
 -1      1523-5.50497E-05 1.26663E-06-3.86870E-07-9.80653E-06-8.68380E-07 3.54979E-05
 -1      1524 1.02544E-05-1.84048E-06 9.64354E-08-3.89298E-06 1.57597E-07-2.75475E-06
 -1      1525-2.29887E-06-2.98721E-07-3.02532E-07 5.47632E-06-4.28913E-07 2.15829E-07
 -1      1526 5.89012E-07-2.06508E-07 1.84760E-09 1.66548E-06 3.12787E-08-1.84459E-07
 -1      1527-3.43166E-07-4.67150E-07-8.32743E-07 1.65277E-06-8.62203E-07 7.03036E-06
 -1      1528-4.49226E-04 1.61486E-03-1.00010E-03 3.10167E-04-4.07074E-05-2.83852E-05
 -1      1529 2.90618E-04-1.08723E-03 4.54845E-04 1.33383E-04 9.34244E-05 8.83898E-05
 -1      1530 9.42517E-04-2.69536E-03 7.23400E-04-6.11013E-05-6.89343E-05 1.88854E-05
 -1      1531-1.56410E-03 4.30234E-03-1.19351E-03-1.02693E-04-1.17695E-04 1.30310E-04
 -1      1532-1.42875E-03 5.09187E-03-1.50375E-03-2.08716E-05-2.11661E-04 8.95123E-06
 -1      1533-1.35894E-03 4.85636E-03-1.64553E-03 9.69123E-05-5.01206E-05-1.12371E-04
 -1      1534-1.27414E-03 4.20037E-03-1.41296E-03-6.13225E-05 5.64630E-05 5.17673E-05
 -1      1535-1.02000E-03 3.40575E-03-1.08374E-03-1.03916E-04-4.13466E-05-4.55191E-05
 -1      1536-6.91699E-04 2.69737E-03-8.73262E-04-4.08918E-05-7.54331E-05 2.89733E-05
 -1      1537 1.74341E-04-1.62886E-04-2.60645E-05 2.26615E-05-1.02503E-04-6.52601E-05
 -1      1538 2.20768E-04-9.39824E-04 3.03229E-04-7.78208E-05 4.06107E-05 4.15637E-05
 -1      1539 3.97969E-04-1.78465E-03 5.49476E-04-1.22973E-05-6.48467E-05-5.18521E-05
 -1      1540 6.58124E-04-2.41366E-03 7.65607E-04-1.11012E-05 6.53266E-05 8.45432E-05
 -1      1541 8.43201E-04-2.95569E-03 8.59434E-04-4.96303E-05-1.22865E-04-9.71174E-05
 -1      1542-4.62295E-04 1.62580E-03-4.69247E-04-8.12764E-05-6.54084E-05-9.51564E-05
 -1      1543-3.52798E-04 8.93547E-04-2.48861E-04-7.38484E-05 2.55262E-05 1.56152E-04
 -1      1544-1.08242E-03 4.17013E-04 7.59666E-04 9.63693E-05 6.83312E-05-8.60457E-05
 -1      1545-1.14816E-02 3.76807E-03 2.88141E-03-2.72689E-04-6.69747E-04 4.09822E-04
 -1      1546-2.86881E-03 9.40188E-04 8.60682E-04-1.07887E-05-1.37648E-05 3.76320E-05
 -1      1547-4.08494E-03 1.27578E-03 1.22073E-03-2.73252E-05 3.35693E-05-6.65992E-05
 -1      1548-4.89749E-03 1.42296E-03 1.52501E-03 3.72212E-05-8.70158E-07 8.79514E-06
 -1      1549-6.55019E-03 2.06634E-03 2.06309E-03 1.23997E-04 2.92068E-05-3.44378E-05
 -1      1550-7.16490E-03 1.85319E-03 2.22938E-03-3.77070E-06-3.94276E-05 2.23115E-05
 -1      1551-7.77663E-03 2.43741E-03 2.38197E-03 1.05383E-04 1.65513E-05-1.02388E-05
 -1      1552-8.28998E-03 2.31504E-03 2.52013E-03 5.86608E-06-2.58833E-05 2.87882E-05
 -1      1553-8.71434E-03 2.69174E-03 2.60986E-03 6.58490E-05 2.28001E-05 2.73730E-06
 -1      1554-8.98670E-03 2.59509E-03 2.64367E-03-1.05080E-05-3.00848E-05 7.34307E-05
 -1      1555-9.08733E-03 2.84746E-03 2.54911E-03-8.63298E-05 1.48373E-05 1.28312E-05
 -1      1556-8.45095E-03 2.56162E-03 2.28711E-03-1.40433E-04 8.25414E-05 1.06210E-04
 -1      1557-7.40342E-03 2.55845E-03 2.00864E-03 5.96585E-05-1.31644E-04 4.48599E-05
 -1      1558-5.36804E-03 1.43323E-03 1.79806E-03-1.28350E-04 2.69821E-04 1.77180E-05
 -1      1559-3.83640E-03 6.73093E-04 1.50576E-03-1.30967E-04-4.32091E-05 6.40117E-06
 -1      1560-3.43303E-03 1.03172E-03 1.23011E-03-7.35590E-05-2.22304E-05-5.35325E-05
 -1      1561-3.51241E-03 1.05880E-03 1.15951E-03 9.06313E-06 3.41536E-05 2.72488E-05
 -1      1562-3.82928E-03 1.11731E-03 1.24061E-03 2.06927E-06-4.91107E-05-1.36092E-05
 -1      1563-4.37779E-03 1.45619E-03 1.34950E-03 2.47594E-05 4.07157E-05 8.78681E-06
 -1      1564-4.99200E-03 1.49627E-03 1.51139E-03 1.09083E-05-3.32267E-05-1.67771E-05
 -1      1565-5.61596E-03 1.87119E-03 1.67765E-03 5.35982E-05 4.51064E-05-1.37876E-05
 -1      1566-6.10785E-03 1.89336E-03 1.82736E-03 3.00973E-05-1.65937E-05-3.14067E-05
 -1      1567-6.62581E-03 1.96669E-03 2.00490E-03 4.39680E-05 1.29283E-05 1.44596E-05
 -1      1568-7.24102E-03 2.12166E-03 2.18023E-03 6.18358E-05-4.41045E-06 1.15895E-05
 -1      1569-7.73259E-03 2.48201E-03 2.28888E-03 1.17454E-04 1.49077E-04 1.40984E-04
 -1      1570-8.35571E-03 2.52176E-03 2.84547E-03 4.67326E-04-8.35161E-06 1.76278E-04
 -1      1571-1.04905E-02 2.95931E-03 3.71117E-03-8.04386E-05 1.90240E-05-2.32617E-04
 -1      1572-5.40835E-03 1.59303E-03 1.71891E-03 2.61157E-05 2.40399E-05 1.03639E-05
 -1      1573-6.05257E-03 1.65206E-03 1.91155E-03-1.50666E-05-5.61832E-05 2.67884E-05
 -1      1574-6.33519E-03 1.87769E-03 1.85859E-03-2.79567E-04-7.73698E-06-2.25539E-04
 -1      1575 1.11367E-03-5.02198E-04-2.51605E-04-3.49273E-04-2.61258E-06-5.34473E-05
 -1      1576-5.77422E-03 1.78411E-03 1.71603E-03-3.20910E-04-4.98674E-05-1.93836E-04
 -1      1577 7.58969E-03-2.35912E-03-2.26187E-03 4.15196E-06-2.44852E-05-3.20058E-05
 -1      1578 7.18631E-03-2.22847E-03-2.07961E-03-2.76504E-04 6.69177E-06-2.12436E-04
 -1      1579 7.76601E-03-2.27377E-03-2.30522E-03-3.83752E-04 6.86898E-05-2.06390E-04
 -1      1580-8.15817E-03 2.46559E-03 2.37452E-03-5.17419E-06-4.41705E-05 6.27044E-05
 -1      1581-8.30191E-03 2.78773E-03 2.21856E-03 3.79637E-05 1.03629E-04 6.62292E-06
 -1      1582-7.98530E-03 2.30591E-03 2.39607E-03-2.24920E-04 8.41795E-05 7.32848E-05
 -1      1583-7.37456E-03 2.24805E-03 2.13560E-03-2.90667E-04-3.51307E-05-2.06325E-04
 -1      1584-7.01346E-03 2.08946E-03 2.10927E-03 4.35496E-05 3.21400E-05-2.78270E-05
 -1      1585-6.88006E-03 2.12993E-03 2.03372E-03-4.17765E-04-3.85914E-05-2.14960E-04
 -1      1586-8.34456E-04-3.30244E-04 2.58150E-04 5.68086E-06 3.34211E-04 1.21770E-04
 -1      1587-1.11787E-03 8.74932E-04 3.23816E-04 1.68183E-04-3.75955E-04-5.83725E-05
 -1      1588-1.01081E-03 6.09507E-04 2.84177E-04 3.63369E-06 6.31432E-05 2.81830E-05
 -1      1589-7.62969E-03 2.39844E-03 2.25768E-03-2.11725E-05-2.09913E-05 4.62882E-05
 -1      1590-7.75761E-03 2.47360E-03 2.21286E-03-2.94626E-04 1.57407E-04 2.10862E-04
 -1      1591-7.24448E-03 2.06555E-03 2.21401E-03-4.37016E-04 2.15257E-06 2.18271E-04
 -1      1592-1.72234E-02 5.50999E-03 4.97867E-03-1.06300E-04 1.06833E-04 3.18779E-04
 -1      1593-1.65554E-02 4.60735E-03 4.48904E-03-3.37266E-04 1.66340E-04 7.01639E-04
 -1      1594-1.65888E-02 4.94596E-03 4.46725E-03 3.90325E-05-2.65344E-05-9.65786E-05
 -1      1595-1.86225E-04 1.06540E-04 5.96227E-05-8.81220E-05 4.02112E-05 1.95411E-05
 -1      1596-1.04108E-04 1.90383E-04-9.91904E-05 1.69795E-04 3.18798E-05 2.91498E-05
 -1      1597-1.60670E-04 2.59170E-04 1.01132E-04 1.07856E-04 2.92809E-05-5.17566E-05
 -1      1598-5.94208E-03 2.10624E-03 1.69565E-03 2.32651E-04 2.03790E-04-3.21186E-04
 -1      1599-4.84062E-03 1.26571E-03 1.41710E-03 8.75095E-04 1.62763E-04-4.01031E-04
 -1      1600 8.95560E-04-7.43521E-04-8.01153E-05 8.93835E-04 1.15884E-04-1.41536E-04
 -1      1601 6.28759E-04-1.89347E-03 5.06656E-04-1.60114E-03-3.64670E-04 6.08493E-04
 -1      1602-2.61283E-03-2.56401E-03 1.72526E-03-3.26630E-04 1.20056E-03 1.35260E-03
 -1      1603-4.36647E-03 3.74481E-04 1.52111E-03 6.32270E-04 5.02605E-04 4.81121E-04
 -1      1604 6.40280E-04 5.10301E-04-1.18834E-03-8.98801E-04-9.72424E-05 8.86285E-05
 -1      1605 8.24561E-04 6.55706E-04-1.03861E-03-1.84981E-03 5.08690E-04 2.82929E-04
 -1      1606-6.65156E-04 1.86152E-03-5.21904E-04-5.93791E-05 2.64599E-05-1.22495E-05
 -1      1607-5.44132E-04 2.15354E-03-7.00743E-04-1.90939E-03 1.37708E-03-1.86413E-04
 -1      1608-2.59471E-04-3.47240E-05 2.05154E-04 8.89225E-05-5.50597E-04-6.92133E-04
 -1      1609 1.03628E-03-1.16581E-03-2.59801E-04 1.61973E-04-4.98175E-04-1.52633E-04
 -1      1610 6.36896E-04 3.25433E-04-2.09395E-04 3.92338E-06 2.96481E-04 7.01459E-05
 -1      1611-1.18400E-02 3.30662E-03 3.72173E-03-3.86375E-04 7.54917E-05-4.46186E-06
 -1      1612-1.25214E-02 3.45932E-03 3.83540E-03-1.16896E-03-8.68009E-05 3.53269E-05
 -1      1613-8.82680E-03 2.48592E-03 2.88998E-03-7.38889E-04 1.45699E-04-5.73069E-04
 -1      1614-1.02735E-02 3.25505E-03 3.29146E-03-1.93033E-03 1.76037E-04-8.19413E-04
 -1      1615 1.83121E-03 7.97984E-04-1.19971E-03 1.51203E-03 6.80998E-05-1.37225E-05
 -1      1616 2.28723E-03 6.89207E-04-1.17142E-03-6.43835E-04-4.76781E-04 8.10306E-04
 -1      1617 3.82920E-03-9.24539E-04-1.16308E-03 9.08513E-05-4.50555E-06-5.26064E-04
 -1      1618 3.78775E-03-1.09763E-03-1.17584E-03-6.87279E-05-2.71924E-05 2.89377E-05
 -1      1619 5.35046E-04 4.21704E-04-7.66905E-04-1.53651E-03-3.82252E-04-2.79137E-04
 -1      1620-2.08852E-02 5.96622E-03 6.32159E-03-1.70808E-03-9.88080E-06-2.02512E-03
 -1      1621-2.42269E-02 6.82763E-03 7.08330E-03 1.59914E-04 2.68068E-04-7.97357E-04
 -1      1622-2.12862E-02 6.61582E-03 6.44533E-03-3.67028E-03 3.31560E-04-3.18628E-03
 -1      1623-2.40803E-03-3.15744E-05-2.16469E-05-9.63835E-04-7.65593E-05-8.37166E-05
 -1      1624-4.79793E-03 1.69325E-03 1.03694E-03-1.42589E-05 6.29493E-05 7.81924E-05
 -1      1625-2.95277E-03 5.40340E-04 2.55086E-04-1.01223E-03 1.82074E-04 1.42517E-04
 -1      1626 8.64498E-03-2.33598E-03-2.83121E-03-3.19781E-04 8.30383E-05-3.33182E-04
 -1      1627 8.46319E-03-2.48014E-03-2.60788E-03 4.03563E-06-4.67169E-05-2.99656E-05
 -1      1628 8.34789E-03-2.48783E-03-2.49888E-03-3.39992E-04 5.46589E-05-2.95939E-04
 -1      1629-1.35769E-02 4.21263E-03 4.01012E-03-4.73234E-04 1.51008E-05-6.48995E-05
 -1      1630-5.44779E-03 1.55095E-03 1.65365E-03-3.06135E-04 3.86106E-05-2.20424E-04
 -1      1631-6.09586E-03 1.86177E-03 1.79367E-03-3.57843E-04-1.46022E-05-1.90535E-04
 -1      1632-1.53939E-03-4.11983E-04 4.46537E-04 1.74640E-04 5.78735E-04 4.06788E-04
 -1      1633-2.10687E-03 9.85798E-04 6.56467E-04 1.10762E-04 1.38132E-04 1.08105E-04
 -1      1634-1.26065E-03 1.17856E-04 4.33178E-04-7.29218E-05-7.90508E-05-5.70629E-05
 -1      1635-1.73600E-03 1.08748E-03 5.06377E-04 2.98153E-04 2.45097E-04-2.23504E-04
 -1      1636 2.42170E-03-1.12062E-04-6.65409E-04 5.69264E-04-4.06057E-04 4.98537E-04
 -1      1637 1.20876E-04-8.11956E-05-6.72848E-05 7.33610E-04-3.96526E-04-8.52021E-04
 -1      1638-5.93249E-04 2.76289E-04 1.82379E-04 1.17254E-03 9.88422E-05 4.85764E-04
 -1      1639-3.18419E-03 1.42451E-03 7.58619E-04 4.68607E-04 3.42763E-04-2.33139E-04
 -1      1640 8.76757E-04-2.34748E-04-2.63759E-04-4.72070E-04-9.88493E-06-6.13418E-06
 -1      1641 8.71860E-03-2.50357E-03-2.86697E-03-9.63969E-04-3.95940E-05-9.56921E-04
 -1      1642 1.56297E-03-4.43066E-03 1.32784E-03 3.69062E-04 1.36757E-04 2.56463E-04
 -1      1643 3.64996E-04-4.83538E-03 1.80441E-03 4.42714E-04 3.13825E-04 3.81426E-04
 -1      1644-5.68332E-03 1.50355E-03 1.73541E-03-2.79360E-04-1.91108E-04 2.39786E-04
 -1      1645-6.14532E-03 1.84045E-03 1.82654E-03-3.33279E-05 3.41624E-05 1.43382E-05
 -1      1646-5.62131E-03 1.53191E-03 1.67266E-03 7.26480E-05-3.77784E-05-3.51946E-05
 -1      1647 5.07087E-04-1.46206E-04-2.57853E-04-1.75391E-03-1.44436E-04 1.76121E-04
 -1      1648 1.53012E-03-9.58845E-04-3.29588E-04-1.42006E-03-4.08368E-04-2.53697E-04
 -1      1649 3.66662E-04-1.34947E-03 3.66821E-04-1.09510E-03 7.77257E-04 1.14567E-04
 -1      1650 1.15165E-03-2.47506E-03 3.98208E-04-9.84345E-04 6.70667E-04-3.99668E-05
 -1      1651-1.95625E-03 4.27496E-03-6.39389E-04-1.58078E-03 1.01099E-03 1.51498E-04
 -1      1652 9.12462E-03-2.77224E-03-2.92888E-03-8.70832E-05-3.17131E-05-1.46512E-04
 -1      1653-1.17950E-03 5.14844E-04 2.61436E-04 9.48109E-04 1.04229E-04 1.74366E-04
 -1      1654 4.56812E-03-1.58736E-03-1.17480E-03 7.28510E-04 1.08671E-04 4.91923E-04
 -1      1655 3.35010E-03-1.02538E-03-9.56384E-04 7.35465E-04 1.13954E-04 4.52799E-04
 -1      1656-2.14016E-03 8.62658E-04 5.96471E-04-1.27723E-03 4.19726E-04 2.51655E-05
 -1      1657-6.44007E-03 2.18424E-03 1.86220E-03 6.15364E-05-5.46306E-05-5.94212E-05
 -1      1658-6.27891E-03 2.40576E-03 1.57058E-03-5.63485E-04-2.13361E-04-1.21963E-04
 -1      1659-6.45759E-03 2.30293E-03 1.56119E-03-6.83145E-04 1.19349E-04 3.10406E-04
 -1      1660-5.90472E-03 1.77066E-03 1.81671E-03-7.65310E-05 1.91083E-04 7.29431E-05
 -1      1661 8.46095E-03-2.62357E-03-2.50860E-03-4.33458E-04-1.13515E-04 3.19895E-04
 -1      1662-2.08351E-02 6.08947E-03 6.26104E-03-3.68872E-04 1.34564E-04 4.19457E-04
 -1      1663-2.05000E-02 6.23111E-03 6.09212E-03-3.56616E-04-1.75435E-06 1.89057E-04
 -1      1664-2.04911E-02 6.05241E-03 6.16507E-03 2.76509E-05-7.48092E-05-1.70629E-05
 -1      1665-7.73414E-04 2.58947E-04 2.31290E-04-4.47684E-04 1.61653E-05-1.28400E-05
 -1      1666-2.51863E-04 1.43612E-04 3.74199E-05 3.43624E-04-9.91090E-05 2.30487E-05
 -1      1667 1.12496E-04 1.23987E-04-1.49182E-04 4.64233E-04-2.83801E-04 5.81413E-07
 -1      1668 1.31453E-04-6.45065E-04 2.23408E-04 2.04717E-04-2.44768E-04 5.59371E-05
 -1      1669 1.23171E-04 8.65908E-06-6.23940E-05 8.17441E-05 3.11931E-05 7.20827E-05
 -1      1670 7.73845E-04-1.95991E-06-3.93189E-04 4.73141E-04 1.72638E-04-1.49241E-04
 -1      1671 1.67360E-03-3.25807E-04-5.91306E-04 3.03111E-04 1.02446E-04 2.57174E-05
 -1      1672 3.39967E-04 3.33133E-04-3.57820E-04 7.16979E-04-1.80565E-04-2.10961E-04
 -1      1673 7.32755E-05 8.64859E-05-1.49237E-04 3.70505E-04 1.01667E-04-1.81127E-04
 -1      1674-3.58069E-04-1.99123E-04 2.92337E-04-2.65510E-03 1.88587E-04 2.25620E-04
 -1      1675 3.11097E-04-1.27581E-03 4.22179E-04 3.29517E-04 2.33532E-04-3.59806E-05
 -1      1676-4.58011E-04 2.43027E-04 7.56798E-05 3.89314E-04 4.31957E-05-1.69247E-05
 -1      1677 2.49912E-04-4.82410E-04 5.49210E-05 3.72025E-04 2.01308E-04-1.31332E-04
 -1      1678 5.60109E-03-1.55796E-03-1.49510E-03 6.99315E-04 1.99021E-04 2.13695E-04
 -1      1679 5.50657E-03-1.96452E-03-1.19710E-03-1.16401E-04-1.70028E-04 2.88354E-04
 -1      1680 5.68905E-03-1.14446E-03-1.37786E-03 4.37123E-04 4.50872E-04-5.59425E-04
 -1      1681-3.72989E-04 8.07573E-04-1.71896E-04 3.40020E-04-2.28538E-04-3.17075E-05
 -1      1682 3.43655E-04-6.60424E-04 1.63472E-04 4.04685E-04-4.96470E-05-9.19316E-06
 -1      1683 4.44293E-04 2.08018E-03-1.00264E-03 2.52984E-04-5.91875E-05 2.59512E-04
 -1      1684 5.09423E-04-5.75371E-04-1.25736E-05-8.35079E-05 9.46407E-05 7.28196E-05
 -1      1685-6.19812E-04 2.24158E-03-5.50375E-04 5.28230E-04 1.06325E-04 1.10991E-05
 -1      1686-1.30671E-03 4.58940E-04 4.29524E-04 5.16919E-04 6.14952E-05 2.84921E-04
 -1      1687 6.59373E-05-3.19247E-04 8.20967E-05 7.49767E-04 2.45821E-04-1.86289E-04
 -1      1688-2.56283E-03 7.32722E-04 7.57294E-04 5.24702E-04-1.74967E-04 2.60887E-04
 -1      1689-6.99515E-04 2.77905E-04 2.23759E-04 7.33073E-04-3.30589E-04 1.82173E-05
 -1      1690 5.82865E-03-1.65881E-03-1.56875E-03 8.44561E-04 2.80322E-05-2.68065E-04
 -1      1691 5.89806E-03-1.15260E-03-1.51743E-03 8.11822E-04-4.61861E-04 2.67747E-04
 -1      1692-9.96875E-04 9.11266E-04-1.32786E-04-1.04090E-04-6.21024E-05-5.26380E-04
 -1      1693 4.04461E-06 8.62809E-07 2.11582E-05-1.37171E-05 4.86012E-06-1.85490E-05
 -1      1694-1.84669E-06 3.01471E-06 5.00233E-06-8.41125E-06 1.78741E-06 5.71085E-06
 -1      1695-1.29623E-05 6.69582E-06 9.58000E-06-5.79920E-05-2.62459E-05 1.70189E-05
 -1      1696 4.62799E-03-1.43926E-03-1.25234E-03 7.48236E-05-6.89178E-05-2.47081E-05
 -1      1697 3.85947E-03-3.98636E-04-1.33770E-03-3.24217E-04-8.51426E-06 6.37988E-04
 -1      1698 4.69003E-03-1.31555E-03-1.38827E-03-3.04283E-04 2.62208E-05 3.24429E-04
 -1      1699-1.12016E-05 3.78817E-04-5.96273E-05 3.89213E-04 2.31020E-04 1.04246E-05
 -1      1700 6.51048E-04-5.87209E-04-2.86162E-05 3.71715E-04-2.40049E-05-9.78398E-07
 -1      1701-3.29501E-04 2.03458E-06 1.07185E-04 2.67875E-04 3.31907E-05 2.29864E-05
 -1      1702 3.23672E-04-9.21847E-04 2.22611E-04 3.59003E-04-1.98621E-04 4.12068E-05
 -1      1703-3.22009E-04-3.51038E-04 6.11811E-04-9.19639E-04 2.27526E-04-3.36048E-04
 -1      1704-5.23828E-03 9.35052E-04 1.46279E-03-2.63586E-04-1.46340E-05-9.79799E-05
 -1      1705-5.83983E-03 1.33362E-03 1.63127E-03 2.58682E-05 6.61837E-05 2.38989E-04
 -1      1706 2.22070E-05 5.97251E-04-3.20362E-04 4.63194E-05-1.57548E-04 6.24333E-05
 -1      1707-9.73712E-05 1.67941E-04 4.68472E-05-5.24394E-05-3.00436E-06 2.24707E-05
 -1      1708 2.06693E-04 4.55691E-04-2.08093E-04 7.17704E-04 2.90142E-04 8.59906E-05
 -1      1709-2.00610E-02 6.06415E-03 6.01644E-03-3.79459E-04 1.05025E-04 3.32262E-04
 -1      1710-1.15382E-02 3.32517E-03 3.53909E-03-4.73105E-04 4.25827E-05 9.35856E-05
 -1      1711-1.96124E-02 5.88161E-03 5.85638E-03-4.55534E-04 2.94605E-05 2.70248E-04
 -1      1712-5.00898E-04 1.57370E-04 1.48078E-04-4.50810E-04 2.74656E-05-1.98088E-04
 -1      1713-4.16866E-03 2.12062E-03 5.98165E-04 4.21138E-04 1.58888E-04-4.78436E-04
 -1      1714-3.09915E-03 1.46557E-03 5.08424E-04-1.89511E-04 4.34114E-06-3.30382E-04
 -1      1715 2.89394E-03 5.28312E-04-1.49793E-03-1.92012E-03 2.57440E-04-1.20714E-04
 -1      1716 4.56646E-03-2.43998E-04-1.57945E-03-1.64441E-03-3.48065E-04 7.31881E-04
 -1      1717 4.83533E-04-1.98378E-04-1.40737E-04-3.94149E-04 7.28585E-06 3.29610E-05
 -1      1718-3.96591E-03 1.31387E-03 1.13991E-03-5.24918E-04 1.32307E-05-2.87255E-04
 -1      1719-5.31230E-05 1.74585E-04-8.26993E-05-6.59546E-04-2.02008E-07-1.68402E-05
 -1      1720 8.06079E-03-2.40660E-03-2.40423E-03-3.77384E-04 8.27654E-05-2.52249E-04
 -1      1721 1.15045E-03-3.67012E-04-3.40319E-04-4.04997E-04 4.35891E-06 4.55171E-05
 -1      1722 9.91735E-04-3.34017E-04-2.72588E-04-4.96398E-04-2.55677E-05 1.63256E-04
 -1      1723-1.23685E-02 3.92148E-03 3.61744E-03-3.43389E-04 6.20871E-06-2.70758E-05
 -1      1724-2.21751E-03-2.17370E-03 1.93557E-03 2.65764E-03 1.87368E-04-1.50197E-04
 -1      1725 5.63099E-03-1.52620E-03-1.73608E-03-3.24012E-04 6.06086E-05-2.14654E-04
 -1      1726 5.11842E-03-1.51867E-03-1.49936E-03-2.21929E-04-1.52586E-05-2.28706E-04
 -1      1727-3.16826E-04 3.98060E-05 7.53598E-05-3.30346E-04 1.07966E-04-2.51044E-04
 -1      1728-1.26413E-02 4.20678E-03 4.23060E-03-5.13947E-03 2.52346E-03-1.23404E-03
 -1      1729-1.28628E-02 2.98993E-03 4.68673E-03-4.28733E-03 5.25346E-04-1.71080E-03
 -1      1730-7.21078E-03 2.40621E-03 1.92957E-03 6.17793E-05-1.11307E-04-4.59517E-04
 -1      1731-8.04916E-03 1.25181E-03 2.98767E-03 2.26522E-04-3.94011E-04 4.58263E-04
 -1      1732-2.04775E-02 6.27269E-03 6.07660E-03-3.57093E-04-4.36247E-05-2.71368E-04
 -1      1733-2.09169E-02 6.12212E-03 6.45416E-03-4.27917E-04-4.92852E-05-3.60623E-04
 -1      1734-2.09116E-02 6.38488E-03 6.28522E-03-7.16253E-05 9.93944E-05 5.27090E-05
 -1      1735 5.79661E-03-1.69851E-03-1.75043E-03 3.92294E-05-5.89757E-06 1.47241E-05
 -1      1736 5.58454E-03-1.74719E-03-1.65363E-03-2.34825E-04-5.67868E-05 1.33640E-04
 -1      1737 5.41594E-03-1.79926E-03-1.64912E-03 5.59825E-05 1.47317E-06-7.70747E-05
 -1      1738 8.16489E-03-2.45365E-03-2.46687E-03-2.15660E-04-1.14548E-04 2.35841E-04
 -1      1739 7.88698E-03-2.36970E-03-2.31887E-03 2.28369E-05 3.57602E-05 8.72420E-06
 -1      1740 8.13259E-03-2.43387E-03-2.44958E-03-1.04905E-06 1.72350E-05-7.77965E-06
 -1      1741-4.01750E-03 7.70807E-04 1.47116E-03 1.44649E-04 2.43583E-05-5.43197E-05
 -1      1742-4.52441E-03 1.48198E-03 1.45405E-03-5.25278E-05-2.19691E-05-2.92432E-05
 -1      1743-4.32880E-03 1.25565E-03 1.35254E-03 1.63178E-05 8.01454E-06 2.01239E-05
 -1      1744-4.19633E-03 1.08466E-03 1.36812E-03 4.80673E-05 1.44263E-04 1.59949E-04
 -1      1745-4.13402E-04 1.06659E-03-2.84344E-04 1.83328E-04 1.86731E-04 3.57060E-05
 -1      1746 3.09634E-04 5.37409E-04-3.72746E-04 7.67953E-04-2.32053E-04-1.54181E-05
 -1      1747 1.70080E-05 1.27107E-05-1.24039E-05 2.85900E-05-3.64558E-06-1.24786E-06
 -1      1748-2.25771E-05 8.27940E-05-1.61789E-05 2.47166E-05 1.27199E-05-3.36872E-06
 -1      1749 1.89719E-06 1.91968E-05-9.53941E-06 1.31413E-05 6.00520E-06 2.06038E-06
 -1      1750-1.93055E-05 6.23998E-05-1.33179E-05 1.01643E-05 1.66680E-05 1.05011E-05
 -1      1751-2.90527E-03-2.11008E-03 1.59753E-03-1.82215E-04-1.57094E-03-8.10486E-04
 -1      1752-4.40921E-03 8.13389E-04 1.43560E-03 4.89595E-04-5.54935E-04-8.82091E-05
 -1      1753-4.22256E-03 1.42664E-03 1.27609E-03-6.68459E-05-2.18507E-04-1.91663E-04
 -1      1754 9.98560E-05 3.32357E-04-1.20482E-04 4.89636E-04 7.87167E-05 8.29566E-05
 -1      1755 8.78741E-05 9.24908E-05-1.26834E-04 3.56586E-04-8.87729E-05 9.75659E-05
 -1      1756 2.87649E-04 2.27084E-04-2.91218E-04 6.70072E-04 1.50174E-04 1.50014E-04
 -1      1757 3.05676E-04 4.29987E-05 5.71798E-05-2.16194E-04 4.24759E-05-5.76322E-05
 -1      1758 2.45331E-04-7.29727E-05 1.20392E-04 3.81533E-05 3.50530E-05-3.02742E-04
 -1      1759 7.62144E-05-2.47718E-04 1.23886E-04 1.84309E-04-7.30756E-05 3.36529E-04
 -1      1760 1.77043E-04-5.98039E-05 3.77537E-05-2.82305E-05-2.14502E-05 2.82210E-05
 -1      1761 1.69781E-04 4.18702E-06-8.18088E-05-1.39087E-04-6.38653E-05 8.37325E-05
 -1      1762 1.50047E-03 3.74755E-04-5.64253E-04 4.69760E-04 4.77784E-04-1.07675E-05
 -1      1763-1.22054E-04 1.51606E-04-1.02965E-04 4.53733E-04 7.55417E-04 8.31585E-04
 -1      1764-3.74722E-04 4.97314E-05 1.57568E-04 5.96354E-04-8.71437E-04-1.01634E-03
 -1      1765-2.38834E-03 1.41591E-03 6.65403E-04 6.50339E-04-3.22783E-04-4.81300E-05
 -1      1766-2.52104E-09 9.00820E-09-7.19204E-09 1.24302E-09 5.62293E-09 7.89917E-10
 -1      1767-8.52663E-04 3.20452E-04 2.09364E-04-4.44054E-04-3.90386E-05 7.11196E-05
 -1      1768-7.77881E-03 2.35400E-03 2.30930E-03-3.62093E-04-5.10940E-05-1.76389E-04
 -1      1769 1.17502E-03-4.25386E-04-2.77802E-04-4.15101E-04 4.69633E-05-7.35603E-05
 -1      1770-2.53240E-03-5.46153E-05 9.95606E-04 7.33736E-04 1.64342E-04 2.99086E-04
 -1      1771-6.41393E-03 2.24255E-03 2.05449E-03 1.81923E-03-4.96518E-05-1.15340E-04
 -1      1772-4.56604E-03 2.65552E-03 8.35600E-04-3.27335E-04 4.47885E-04 5.62256E-04
 -1      1773-7.17003E-03 1.53587E-03 2.01641E-03 9.95856E-04-2.38606E-04-3.64298E-04
 -1      1774-6.46784E-03 2.29564E-03 1.86452E-03 1.77148E-03 2.13131E-04-9.59300E-04
 -1      1775-4.49974E-03 8.20135E-04 1.72348E-03 9.56063E-04-5.23858E-04-8.88399E-04
 -1      1776-4.88555E-03 8.08871E-04 1.81431E-03-2.17996E-05 4.57700E-05-3.33853E-05
 -1      1777 1.43990E-03-5.04220E-03 1.50083E-03 5.16917E-04-1.32827E-04-5.34270E-06
 -1      1778 4.80451E-04-9.72040E-04 1.73141E-04 5.30165E-04 3.51306E-05 5.74043E-05
 -1      1779 2.07959E-04 1.13286E-04-8.11993E-05 6.34515E-04 2.01546E-06 8.43441E-05
 -1      1780-1.07951E-03 4.05827E-03-1.30562E-03 5.57611E-04 3.11104E-04-2.68687E-06
 -1      1781-1.32432E-03 1.12354E-03 7.62593E-05 1.07287E-04-6.97120E-06 2.33558E-04
 -1      1782 2.01618E-04-2.44136E-05-2.58340E-04 1.25801E-04 4.79422E-05-1.20214E-04
 -1      1783 3.68821E-04-1.53640E-04-1.10951E-04-1.33496E-04 3.52363E-05-3.98923E-05
 -1      1784-7.52820E-03 2.26737E-03 2.22311E-03 6.65632E-04 2.20030E-04 9.81298E-04
 -1      1785-8.42100E-03 2.78439E-03 2.30853E-03 3.24567E-04-2.10995E-04 3.44812E-04
 -1      1786-8.04842E-03 2.56586E-03 2.26091E-03 1.66056E-05 1.59727E-05 3.52986E-05
 -1      1787-4.79258E-04 2.87749E-04 1.26743E-04-3.04442E-05 6.46542E-05 2.73948E-05
 -1      1788-6.35806E-04 8.10714E-04 1.63812E-04 3.28127E-05-3.69216E-04 3.16905E-05
 -1      1789-6.31684E-04-1.70673E-04 1.65672E-04 1.48173E-04-2.72549E-04-1.82869E-05
 -1      1790-7.29643E-04 2.03064E-04 2.21577E-04-8.34156E-06-4.71650E-05-6.20624E-05
 -1      1791-5.89179E-03 1.81936E-03 1.78404E-03 6.26770E-05 4.11045E-05-4.19174E-05
 -1      1792 3.72880E-03-1.09836E-03-1.03740E-03 9.87355E-04 2.14195E-04 3.75076E-04
 -1      1793-2.33730E-03 3.70333E-04 7.39243E-05-1.13986E-03-9.36604E-05 1.97025E-05
 -1      1794-4.92025E-03 1.71507E-03 1.05558E-03-6.81694E-04-3.34167E-04-8.39588E-04
 -1      1795-2.29323E-04 6.73700E-04 2.91333E-05 2.80638E-04 4.82063E-04-2.81035E-04
 -1      1796-3.25950E-04 1.80503E-04-9.55641E-06 2.22637E-04-4.09151E-05 2.90216E-04
 -1      1797 7.68623E-03-2.43081E-03-2.26881E-03-3.30444E-04-7.79102E-05 1.83804E-04
 -1      1798-6.89927E-04 3.72249E-04 1.45604E-04-3.51912E-04-8.64338E-05 8.18575E-05
 -1      1799 6.23704E-03-2.02515E-03-1.87829E-03-2.87151E-04-8.33826E-05 2.20252E-04
 -1      1800 5.47752E-05-1.65471E-04-3.24187E-05-3.26094E-04-9.29780E-05-3.20634E-04
 -1      1801 2.42599E-04-1.00448E-04-4.68722E-05-1.30160E-05 3.95054E-05-6.83562E-06
 -1      1802-1.90176E-09-1.69167E-08 2.36766E-08 4.90743E-10 1.42183E-08 9.85155E-10
 -1      1803-1.26624E-04 7.08302E-04-4.25144E-04 7.48087E-05 7.70433E-05-1.10892E-05
 -1      1804 3.18794E-04 4.70775E-04-5.80711E-04-4.13449E-04 2.92500E-04-2.39938E-05
 -1      1805 1.51447E-04 2.68767E-04-2.60834E-04-3.33372E-04 1.96508E-04 7.70736E-06
 -1      1806 4.02490E-03 7.53704E-05-1.02624E-03 1.44220E-03-2.12572E-04 1.68181E-03
 -1      1807-1.10261E-04 1.18393E-03-7.95121E-04 1.16183E-04-3.77286E-05 3.29530E-04
 -1      1808 3.30395E-03 3.42849E-04-1.05683E-03 2.88562E-03 7.79803E-05-2.98533E-05
 -1      1809 9.68878E-04 1.07662E-03-9.73446E-04 1.19240E-03-4.99025E-04-7.15410E-04
 -1      1810-8.61280E-05 1.68217E-04 2.80549E-05 8.40636E-04-1.78468E-04-1.57232E-04
 -1      1811 1.30065E-03-5.04460E-03 1.31618E-03 5.87991E-04-6.86717E-05 6.08031E-06
 -1      1812-9.55425E-04 4.24369E-04 2.69617E-04-3.41962E-04 7.13448E-04-1.91372E-04
 -1      1813-4.17830E-04 9.40804E-04-2.22241E-04-1.73022E-03 3.22287E-05 2.49199E-04
 -1      1814-3.10671E-03 1.18579E-03 7.68946E-04-1.15339E-03-1.54368E-05-6.31033E-04
 -1      1815-1.50840E-03 3.12742E-04 5.79305E-04-1.23115E-03-1.08970E-05-6.47198E-04
 -1      1816 2.67186E-04-4.66199E-04 1.83387E-04-8.86766E-04-1.12975E-04 4.54131E-04
 -1      1817-5.48319E-05-1.33417E-04-7.20201E-05-3.98378E-04 7.89987E-05 5.34254E-05
 -1      1818 5.19795E-04-1.71233E-03 4.93941E-04-2.17232E-05-4.25111E-05-1.71760E-05
 -1      1819 4.49656E-04-1.29418E-03 3.68943E-04 3.70535E-04-2.51073E-04 2.13529E-05
 -1      1820 4.68373E-04-1.90095E-03 6.27091E-04 3.00896E-04-1.95829E-04 5.09103E-06
 -1      1821 1.42152E-04-4.15803E-05-6.66321E-05 2.77477E-05-5.87033E-05-9.75465E-05
 -1      1822-1.57496E-04-5.39868E-04 4.74415E-05 2.77288E-04 4.73743E-04 1.90659E-04
 -1      1823 3.81190E-04-3.22874E-04-1.06697E-04 9.13204E-04-1.32352E-04-1.10026E-04
 -1      1824-4.18471E-03 1.05958E-03 1.04669E-03 9.21531E-04 1.65539E-04-3.59126E-04
 -1      1825 2.48758E-03 8.60880E-04-8.12855E-04-5.20787E-03-1.56276E-03-5.00537E-03
 -1      1826 9.10649E-05 1.65258E-03-1.30971E-03-3.75967E-03-9.42896E-04-2.04919E-03
 -1      1827-3.15630E-04 9.38269E-04-2.65688E-04 3.24967E-04 2.11160E-04 9.94389E-05
 -1      1828-6.40712E-04 1.56930E-03-3.68227E-04 1.83965E-04 1.88678E-04 3.42288E-05
 -1      1829 2.01174E-04-5.53505E-04 1.58143E-04 4.42640E-04 5.01949E-05 8.01565E-05
 -1      1830-8.81833E-04 8.12543E-04 2.60342E-04 9.71777E-05 2.62373E-04-1.40709E-04
 -1      1831 4.16334E-04-6.73038E-04-1.03395E-04-1.70724E-06-3.26142E-04-1.13619E-04
 -1      1832-1.03061E-04 4.92765E-05-4.97027E-05 1.02484E-05 4.41478E-04 5.62894E-04
 -1      1833 6.83772E-04-2.37895E-03 6.44069E-04 4.54610E-04-1.93618E-04 9.16258E-05
 -1      1834-1.68247E-03 4.57817E-03-1.16961E-03 4.89076E-05 8.11903E-05 3.98546E-05
 -1      1835-1.16229E-04 2.56489E-04-2.96872E-05 7.12743E-04-4.09420E-05-3.31224E-05
 -1      1836 1.44233E-05-5.09621E-03 1.80685E-03 3.15669E-04-4.32626E-04-6.83244E-04
 -1      1837-1.48514E-02 3.83833E-03 4.38096E-03-1.54846E-03 4.15361E-05 6.50496E-04
 -1      1838 1.63077E-03 8.22652E-04-9.03651E-04 1.62501E-03 4.87899E-04 6.02031E-04
 -1      1839-7.54196E-04 2.58976E-03-7.54946E-04 3.60842E-04 1.74769E-04 9.95004E-05
 -1      1840-6.68153E-04 1.70275E-03-4.12905E-04 3.17930E-04 2.52219E-04-2.86377E-05
 -1      1841-2.11113E-04-1.13466E-05 9.08918E-05 5.89077E-04 9.70467E-06 2.87698E-05
 -1      1842 7.04055E-04-1.66983E-04-2.18080E-04-4.76864E-04-9.01978E-05 2.24644E-04
 -1      1843-4.75693E-03 1.53657E-03 1.40179E-03-3.03990E-04 9.59722E-05 2.32076E-04
 -1      1844-4.35987E-03 1.31492E-03 1.24779E-03 2.20314E-05-3.70658E-05 1.07436E-05
 -1      1845-4.83040E-03 1.63223E-03 1.43066E-03 1.05121E-04 2.69028E-05-1.55699E-05
 -1      1846-4.22327E-03 1.19528E-03 1.29279E-03-4.93224E-04-1.48820E-04 2.33539E-04
 -1      1847-1.21834E-02 3.49241E-03 3.80973E-03-4.29577E-04-9.54488E-05-5.26420E-04
 -1      1848-1.72214E-02 5.19189E-03 5.19890E-03-3.54284E-04-2.69448E-04-5.49748E-04
 -1      1849-8.05954E-03 2.56403E-03 2.24738E-03-4.99381E-04-1.53447E-04 4.85657E-04
 -1      1850-1.32248E-02 3.99152E-03 3.91033E-03-4.42351E-04-1.21113E-05 3.15352E-04
 -1      1851-2.85810E-03 2.66148E-04 1.15275E-03 2.85655E-04-5.63425E-05 8.27574E-04
 -1      1852 4.92643E-04 3.53778E-04-2.18879E-04-3.05085E-04-1.90497E-04 3.11494E-04
 -1      1853-8.15761E-03 2.64334E-03 2.25472E-03-1.95883E-04-1.00015E-04-1.12200E-04
 -1      1854-1.08891E-03 4.66629E-04 3.65718E-04-2.68617E-04-3.50679E-06-3.30825E-06
 -1      1855-6.69978E-03 1.85067E-03 2.02677E-03-1.65194E-04-1.15886E-04 1.96625E-04
 -1      1856-7.20470E-03 2.22273E-03 2.13432E-03-3.03228E-04 1.00004E-04 1.52062E-04
 -1      1857-7.07346E-03 2.14143E-03 2.13525E-03-3.36658E-05 1.74673E-05 1.76325E-05
 -1      1858 2.52046E-04 5.06618E-04-5.35617E-04-3.99768E-04-1.33095E-04-2.26709E-05
 -1      1859 1.44445E-04 8.10058E-05-6.78923E-05-2.28824E-04-6.34296E-05-4.83893E-05
 -1      1860 3.20901E-10-4.44359E-08 4.38234E-08-1.61919E-10 3.47788E-08 9.10544E-10
 -1      1861-2.03538E-09-2.11773E-08 2.10459E-08 2.52092E-09 6.77597E-09 3.21761E-11
 -1      1862 1.21580E-03-3.19378E-03 6.18545E-04 4.92094E-03-9.05982E-04 1.84334E-03
 -1      1863 3.58445E-03-5.61058E-03-1.71402E-05-4.42972E-03 4.49917E-03-1.64188E-03
 -1      1864-5.78352E-04 1.11683E-03-4.30487E-04-9.48933E-04-1.00138E-04-5.73011E-04
 -1      1865 4.73683E-03-1.75204E-03-1.30968E-03-1.25493E-04 5.62258E-05-4.62569E-05
 -1      1866 3.45658E-03-8.38335E-04-1.09159E-03 6.93162E-05-1.57154E-05-6.23244E-06
 -1      1867-3.38787E-09-1.21638E-08 1.51879E-08-6.90565E-09 2.46618E-08-2.53345E-09
 -1      1868-1.92355E-03 4.62959E-03-9.32734E-04-1.11707E-03-7.19380E-04 9.47689E-05
 -1      1869-5.62900E-04 2.40295E-03-7.26924E-04-1.27878E-03-1.00335E-03 1.31840E-05
 -1      1870 3.08004E-03-9.11102E-04-9.96264E-04 3.20865E-05-7.46402E-05 3.10188E-05
 -1      1871-2.28922E-09-1.18824E-09 5.14893E-09-5.56558E-10-3.39424E-09-1.88781E-10
 -1      1872 5.14597E-03-1.14096E-03-1.82483E-03-8.71781E-04-3.28975E-05-8.47255E-05
 -1      1873 1.51989E-03-1.04822E-04-4.83754E-04 1.41752E-04 2.95342E-05-8.08399E-06
 -1      1874 1.25531E-03-2.08757E-04-4.00357E-04 3.67651E-04 1.26239E-04 2.23598E-04
 -1      1875 2.69841E-03-1.47536E-03-7.95700E-04-6.99066E-05 6.58312E-05 3.35948E-05
 -1      1876 2.34914E-03-7.70923E-04-6.51343E-04 5.77899E-04 4.09208E-05 3.06444E-04
 -1      1877 1.93254E-03 8.68049E-04-8.51830E-04-3.32486E-04 1.41589E-04-1.11202E-03
 -1      1878-7.12286E-03 1.55520E-03 2.07614E-03-1.21354E-04-1.70781E-05 6.08841E-05
 -1      1879-8.42439E-03 2.97218E-03 2.21751E-03 7.07534E-04 2.62628E-04-7.04356E-04
 -1      1880-7.03213E-03 2.08123E-03 1.90269E-03 1.38716E-03-4.21476E-04-1.11080E-03
 -1      1881-7.84166E-03 2.31399E-03 2.33822E-03 2.70986E-05 1.17038E-05-1.98712E-05
 -1      1882 5.13894E-03-1.73835E-03-1.50833E-03-3.70193E-04-8.29801E-05 2.85078E-04
 -1      1883 9.60389E-04-4.47299E-04-2.26865E-04-2.96250E-04-4.41403E-05-4.95084E-05
 -1      1884-4.65935E-03 1.31740E-03 1.42463E-03-2.65552E-04-1.45763E-05-1.61752E-04
 -1      1885-1.23324E-02 1.81173E-03 4.93111E-03-2.28084E-03-5.40666E-05-8.24062E-04
 -1      1886-1.16320E-02 3.26551E-03 3.32579E-03-1.95794E-03-1.01191E-03-1.86715E-03
 -1      1887-1.14186E-02 3.51692E-03 3.74420E-03-1.81149E-03-1.97404E-04-1.03278E-03
 -1      1888-1.17693E-02 3.14633E-03 2.95697E-03-1.71277E-03-2.39178E-04-4.48430E-04
 -1      1889-2.43633E-03 7.64387E-04 7.12839E-04 5.36657E-04-1.35604E-05-1.87712E-04
 -1      1890-3.81118E-03 1.63881E-03 1.14225E-03 6.08768E-04 2.25914E-04-4.44869E-04
 -1      1891-2.81410E-03 8.55544E-05 8.10713E-04-3.11962E-04-6.14566E-05-1.55583E-04
 -1      1892-2.30615E-03 1.51040E-03 3.52345E-04-1.09647E-03 2.66527E-04 3.23011E-04
 -1      1893-2.65568E-09-8.18348E-09 1.53562E-08 3.88485E-10 2.37475E-08 6.41232E-10
 -1      1894 6.70043E-06 2.65945E-05-5.03303E-06 1.99028E-05-6.48972E-06-1.33862E-06
 -1      1895-3.45081E-05 7.99423E-05-1.86729E-05-7.70679E-06 1.31210E-05 3.13306E-06
 -1      1896-1.90036E-05 8.31514E-05-1.91597E-05 3.11227E-05-2.33630E-05 9.67578E-07
 -1      1897-2.61551E-05 9.77147E-05-5.06833E-05 4.31032E-05-7.86519E-06 1.01968E-05
 -1      1898-7.72291E-04 2.18112E-03-7.25761E-04 2.05154E-04-8.45642E-05-1.68307E-04
 -1      1899-5.18832E-03 1.65267E-03 1.55921E-03-4.20509E-04 7.49149E-05 1.62964E-04
 -1      1900-4.63036E-03 1.18314E-03 1.51797E-03-2.82392E-04-1.72442E-04 2.15664E-04
 -1      1901-4.99207E-03 1.45608E-03 1.51656E-03-4.61260E-05 3.23721E-05 3.71010E-05
 -1      1902-1.53662E-04 2.80818E-04-2.50490E-04 1.23188E-03 2.89653E-04 2.29436E-05
 -1      1903 3.21432E-03-4.63341E-04-9.06354E-04 5.28049E-04 5.05484E-05-4.99653E-04
 -1      1904 5.60572E-04-5.73754E-04 1.33665E-04-3.40128E-05-2.59644E-04 4.23482E-04
 -1      1905 4.18903E-03-1.53177E-03-1.11520E-03-1.14816E-04-3.30176E-04 1.01513E-04
 -1      1906-2.01228E-02 6.14032E-03 6.03142E-03-2.59007E-04-2.01943E-04-1.95002E-04
 -1      1907-1.96222E-02 5.81202E-03 5.87845E-03-7.76564E-05 9.42565E-06-2.90504E-06
 -1      1908-1.94497E-02 5.73332E-03 5.80030E-03-4.28622E-04 8.05471E-05-2.14103E-04
 -1      1909 3.41114E-04-9.89068E-05-1.22381E-04-2.13258E-04-6.04779E-05 6.27951E-05
 -1      1910 1.08200E-04-3.49746E-05 1.57686E-06 4.50815E-04-2.66817E-04-2.92556E-05
 -1      1911-6.67151E-03 2.18065E-03 1.98052E-03-5.38046E-05-3.55125E-05 3.68537E-05
 -1      1912-6.85818E-03 2.25477E-03 1.98406E-03-2.26921E-04 1.72600E-04 1.82644E-04
 -1      1913 3.11835E-04-8.90633E-04 2.40611E-04 2.33036E-06 4.67273E-05 2.82138E-05
 -1      1914-5.63350E-05 1.32919E-04-3.22869E-06-2.69209E-05-5.27396E-06-3.93585E-05
 -1      1915 3.05078E-04-8.49293E-04 2.25994E-04 2.57978E-04 1.56581E-04 2.38012E-05
 -1      1916-1.27446E-04 1.77603E-04-2.03905E-05 1.17521E-04-3.32978E-05-3.49642E-06
 -1      1917-1.62211E-04 1.55434E-04-1.29351E-05-6.57768E-05-2.69548E-05-2.93225E-05
 -1      1918-2.41780E-04 2.54681E-04 5.89664E-05 9.45805E-05 2.31467E-05-3.34669E-05
 -1      1919-7.51804E-04 1.01531E-03-6.51880E-05-9.25699E-04-1.06464E-04-5.97693E-04
 -1      1920 4.41913E-03-2.57565E-04-1.09791E-03 4.07934E-04 2.23867E-04-1.84229E-03
 -1      1921 3.17559E-04-6.01597E-04 1.68230E-04-1.01573E-03 1.21816E-04-2.58746E-04
 -1      1922 9.65548E-05-3.57324E-04 7.87081E-05 4.63701E-04 4.33318E-06-6.86191E-05
 -1      1923-1.02540E-03 3.31179E-03-9.20181E-04 3.65222E-04 2.43342E-04-8.16668E-06
 -1      1924 5.48840E-04-9.47913E-04 1.91380E-04 3.15492E-04-1.86648E-05 1.89541E-07
 -1      1925-4.62669E-03 1.35009E-03 1.42741E-03 4.53369E-05-2.90163E-05-3.62448E-05
 -1      1926-4.93713E-03 1.42701E-03 1.50928E-03-4.25930E-04 1.89055E-05-2.09949E-04
 -1      1927-4.50104E-03 1.24912E-03 1.46177E-03-2.79871E-04 1.25882E-04-9.05358E-05
 -1      1928-3.01182E-03 5.97996E-04 1.61858E-03 1.71896E-03-8.03646E-04 1.75333E-03
 -1      1929-3.70988E-03 1.22514E-04 1.47024E-03 7.83249E-04 9.98036E-05 1.54171E-04
 -1      1930 2.12310E-04 2.21631E-04-3.84054E-04-1.34307E-04 2.40827E-04-4.98177E-05
 -1      1931-6.15522E-03 1.71692E-03 1.90404E-03-4.23891E-04-6.32510E-05 2.15934E-04
 -1      1932-1.33365E-02 4.03981E-03 3.93483E-03-3.08073E-04-1.42031E-04 3.40583E-04
 -1      1933-1.82723E-03 4.80541E-03-1.01275E-03 2.71077E-05 3.17597E-04 3.38241E-05
 -1      1934-3.95210E-03 1.20962E-03 1.12934E-03 9.43637E-04-4.76472E-05 1.91308E-04
 -1      1935-6.57543E-04 2.36736E-03-7.33796E-04-2.06973E-05-6.76194E-05 2.50040E-05
 -1      1936-1.01911E-03 3.31241E-03-9.48578E-04 2.21977E-04-1.40367E-04-3.08123E-05
 -1      1937-1.24181E-03 3.84313E-03-1.09256E-03 3.17138E-04-2.37926E-04 9.67073E-06
 -1      1938-3.70607E-05-1.73684E-05 9.35121E-05 4.26509E-04-2.19784E-05-4.18940E-05
 -1      1939 1.76809E-03-1.97309E-04-6.73441E-04 7.21777E-04 8.28993E-05 1.54897E-05
 -1      1940 2.85667E-03-6.39575E-04-8.84754E-04-1.18191E-04 1.09001E-04 1.14336E-04
 -1      1941-1.46289E-03 4.50609E-04 5.24813E-04-8.40295E-04-5.72114E-05 5.67835E-04
 -1      1942-2.70294E-03 1.27994E-03 6.04573E-04-1.86246E-03-1.82769E-04 9.94754E-04
 -1      1943-2.54293E-04 8.26653E-04-3.54510E-04-2.09479E-03 2.22159E-05-3.75158E-04
 -1      1944-4.45192E-04-2.12221E-04 1.68550E-04-2.38467E-03-3.60590E-04-1.02067E-04
 -1      1945 1.76246E-03-1.96635E-04-7.95921E-04-1.17711E-03-3.81205E-05 8.77760E-04
 -1      1946-6.39956E-03 1.67288E-03 1.39530E-03 1.98363E-03 1.20699E-03-2.06847E-04
 -1      1947-6.87621E-03 2.39880E-03 1.73846E-03 1.63016E-03-5.37612E-04 6.31672E-04
 -1      1948-5.40387E-03 1.56373E-03 2.20944E-03 1.54778E-03-7.47641E-04-8.60050E-04
 -1      1949-4.42688E-03 2.06721E-03 1.16062E-03 5.82823E-04 4.32993E-04 7.42683E-05
 -1      1950-3.20499E-03 2.24031E-03 3.91285E-04-1.66285E-04 3.51153E-04 5.87788E-04
 -1      1951-1.05605E-03 6.45350E-03-8.80746E-05 1.47630E-03 5.40354E-04-1.27577E-04
 -1      1952 2.79500E-03 4.04275E-03 4.37321E-04 3.67572E-03 1.94643E-03-1.85442E-03
 -1      1953-1.59383E-02 4.71431E-03 1.16724E-03 4.77577E-03-5.70139E-04 1.70738E-04
 -1      1954-1.75552E-02-2.40645E-06 2.26695E-03 8.98423E-03-5.57594E-04-2.06847E-04
 -1      1955 6.77195E-05-2.11986E-04 1.86570E-05-2.47565E-05-1.23834E-04-1.77202E-04
 -1      1956-4.79320E-03 1.57784E-03 1.16410E-03-9.96230E-04 2.73781E-04 4.18082E-04
 -1      1957 4.07628E-04-3.46968E-04-1.68733E-04 1.96550E-04-1.05514E-04-6.15755E-05
 -1      1958 3.29692E-03-6.06876E-03-2.98810E-04 4.52199E-03 1.32282E-03 7.49399E-04
 -1      1959-1.21552E-03 6.76548E-04 1.47497E-04-4.06386E-04-1.16198E-05 1.63527E-04
 -1      1960-1.77738E-02 5.29046E-03 5.39583E-03-5.10709E-05-1.70681E-05-6.41433E-05
 -1      1961-1.74444E-02 5.07034E-03 5.22568E-03-3.08382E-04 2.02719E-04-2.08735E-04
 -1      1962-1.78016E-02 5.25143E-03 5.36944E-03-3.00365E-04 3.16744E-05 1.44417E-04
 -1      1963-1.74758E-02 5.31522E-03 5.32363E-03 1.47229E-05 7.45940E-05-7.97645E-05
 -1      1964 2.68430E-03-1.69843E-03-7.53834E-04 5.04279E-04-5.29219E-04-2.89013E-04
 -1      1965 3.60880E-03-6.94169E-04-1.20167E-03-1.38049E-03-2.92938E-04 2.28182E-04
 -1      1966-2.85570E-05 8.66608E-06 1.37640E-05-8.52995E-06 6.67946E-06 2.91395E-06
 -1      1967-7.22027E-06 1.12223E-06 8.26273E-06-1.28008E-05 4.95529E-06-7.20547E-06
 -1      1968-3.80021E-05 8.22291E-06 2.37346E-05-3.33670E-05 9.03887E-06-1.53384E-05
 -1      1969-1.34533E-03 4.38253E-04 5.59216E-04 9.41955E-05 1.14273E-04-5.61678E-05
 -1      1970-2.95272E-04-5.16042E-04 7.73404E-04-5.03353E-04-3.99501E-05-2.16935E-04
 -1      1971-5.61471E-03 1.77803E-03 1.66205E-03-4.94621E-05-2.75484E-05 1.14379E-05
 -1      1972-5.22415E-03 1.45563E-03 1.60955E-03-3.62766E-04-1.37990E-04 1.79932E-04
 -1      1973-5.76141E-03 1.90985E-03 1.69151E-03-1.56580E-04 1.17064E-04 1.49202E-04
 -1      1974 8.15445E-04-2.31044E-03 5.00772E-04-8.08159E-05-1.31965E-04-2.39240E-05
 -1      1975 9.56586E-04-2.77528E-03 6.74715E-04 8.95585E-05 7.87520E-05 2.08161E-05
 -1      1976 1.33528E-03-2.72647E-03 4.83571E-04-7.82159E-04-4.68399E-04-3.47334E-05
 -1      1977 8.88449E-04-2.61337E-03 6.35201E-04-5.89596E-05-1.08131E-04-1.03008E-05
 -1      1978-5.80700E-07-3.41952E-08-1.60107E-06 3.27544E-07-2.63831E-06 7.27227E-07
 -1      1979 7.08288E-06 1.03462E-06-5.01392E-06 1.35492E-05-4.97381E-06 1.70433E-06
 -1      1980 3.42251E-06 9.65021E-07-1.41725E-06 4.69368E-07 6.01814E-07 1.32525E-06
 -1      1981-2.03108E-07 1.26910E-07 4.73290E-07 4.86780E-07-1.42154E-07-6.04301E-07
 -1      1982-3.01156E-03 1.62108E-03 8.84083E-04-1.71731E-04-1.13982E-04-1.83664E-04
 -1      1983-1.55325E-03 2.86046E-04 4.73096E-04-1.02826E-04 1.39845E-04 2.46855E-05
 -1      1984-1.91796E-03 3.36527E-04 5.31054E-04 6.40591E-04-1.93302E-04-5.13287E-04
 -1      1985 1.33834E-03-4.35145E-03 1.31513E-03-2.53140E-05 7.05062E-05 2.55296E-05
 -1      1986 1.71213E-03-4.45844E-03 1.13171E-03 1.30225E-04 9.23980E-05-2.99541E-05
 -1      1987 1.54122E-03-4.86437E-03 1.27684E-03 1.30687E-04 1.77818E-05-9.15126E-05
 -1      1988-1.04218E-03 3.70793E-03-1.13159E-03-1.35893E-05 5.55271E-05 7.29340E-05
 -1      1989-7.05987E-04 2.97289E-03-9.15083E-04-3.87129E-05-3.05174E-05-7.64748E-05
 -1      1990-1.76187E-04 1.11868E-04 1.05127E-04 1.11320E-04 3.51752E-05-1.33873E-04
 -1      1991 1.38100E-05 9.65556E-05 1.66313E-05 1.07202E-04 1.09671E-04 1.77200E-04
 -1      1992-1.18599E-02 3.48350E-03 3.64805E-03-3.64666E-04 8.46986E-05-2.85205E-04
 -1      1993-7.57701E-03 2.23906E-03 2.32417E-03-3.68764E-04-1.72743E-04 3.34877E-04
 -1      1994-2.10886E-02 6.03894E-03 6.53373E-03-1.04987E-03 2.36035E-04 1.32067E-03
 -1      1995-2.05343E-02 6.12307E-03 6.03880E-03-1.48436E-03 1.71116E-04 1.83020E-03
 -1      1996-1.48464E-02 3.86080E-03 5.13011E-03-1.36087E-03-1.23502E-04-2.21025E-05
 -1      1997 3.80068E-04-1.20355E-03 3.03029E-04 1.25171E-05 9.45902E-05 2.38240E-05
 -1      1998 4.28123E-04-1.10668E-03-2.28761E-05 3.80595E-04-5.02335E-04-5.82918E-05
 -1      1999 1.29753E-03 4.16536E-04-4.11818E-04 5.06474E-04 6.08861E-04-4.43515E-04
 -1      2000 7.98877E-04 2.09278E-05-2.83683E-04-1.32341E-04 7.81936E-05 1.10685E-04
 -1      2001-8.17119E-03 2.52863E-03 2.42801E-03-2.29256E-05-1.41537E-05 1.27890E-04
 -1      2002-7.72439E-03 2.10794E-03 2.34239E-03 1.09631E-04-1.99776E-06-7.13424E-06
 -1      2003-3.50043E-03 1.16925E-03 9.41585E-04 2.49880E-04-1.00276E-06-1.56881E-04
 -1      2004-4.80206E-03 1.53133E-03 1.36004E-03 6.68133E-04-3.11031E-04 4.67752E-05
 -1      2005-7.93419E-05 3.15676E-04-7.61980E-05 9.18179E-04 7.75763E-04 7.19824E-04
 -1      2006-3.37590E-03 4.09940E-05 9.81812E-04 3.47522E-04 5.97930E-04 6.20105E-04
 -1      2007 5.57338E-04-1.59022E-03 4.85785E-04-9.97114E-04-4.59241E-04 1.62818E-04
 -1      2008-9.10354E-03 1.51256E-03 3.23268E-03-5.80648E-04-8.56698E-05 4.44557E-04
 -1      2009 1.09639E-02-2.57693E-03-4.07731E-03 1.08469E-03-1.37703E-04 1.26069E-03
 -1      2010 1.05355E-02-2.95341E-03-3.66832E-03 3.02546E-05 3.12122E-04-1.16612E-03
 -1      2011 1.09420E-02-1.96890E-03-3.53802E-03 7.24715E-04-2.70212E-04-1.95245E-03
 -1      2012-2.01938E-02 1.82105E-02 1.12778E-03 7.80639E-03-5.14939E-03 2.56856E-03
 -1      2013-4.38615E-03 7.90440E-04 1.42784E-03 1.14923E-03 3.65322E-04 1.27081E-03
 -1      2014-2.08249E-04 7.08426E-04-1.39406E-04 2.11022E-06-1.66203E-04 2.25702E-05
 -1      2015-2.77005E-03 7.35573E-04 1.44025E-03 1.60873E-03 3.06863E-04-8.81785E-04
 -1      2016-7.73715E-04 5.04779E-04 9.95891E-04-2.47149E-04 1.43044E-04-5.29791E-04
 -1      2017 1.56624E-03-2.20469E-03 2.75839E-04-1.54876E-03-6.85178E-05-1.10794E-04
 -1      2018-5.00601E-04 1.41870E-03-3.62354E-04 2.58838E-04-2.07695E-04 8.09899E-07
 -1      2019-6.11655E-04 2.12353E-03-6.38989E-04 4.68775E-04-1.72539E-04-2.10756E-05
 -1      2020-4.62205E-04 1.50160E-03-4.79431E-04-1.14297E-05 7.21275E-05-1.17497E-05
 -1      2021 9.75590E-03-2.52339E-03-3.28769E-03 3.00821E-04 1.04496E-04-5.92829E-05
 -1      2022 8.77922E-03-2.36444E-03-2.80001E-03-5.07831E-04-1.19821E-04 9.05505E-04
 -1      2023 8.46848E-03-2.33929E-03-2.93456E-03-1.18052E-03-3.28970E-04 1.71146E-03
 -1      2024-1.35772E-02 4.11109E-03 4.02545E-03-5.14809E-04-5.67311E-05-1.38608E-04
 -1      2025-1.35295E-02 4.21678E-03 3.97439E-03-3.65165E-04-1.15267E-04 2.93405E-04
 -1      2026-1.90147E-02 6.00755E-03 5.71525E-03-2.93733E-04-1.79855E-04-1.32340E-04
 -1      2027-6.33065E-03 2.07150E-03 1.84384E-03-2.68502E-04 6.73123E-05 1.18486E-04
 -1      2028-1.17617E-02 3.48278E-03 3.56885E-03-2.72884E-04 1.36822E-05-3.46346E-04
 -1      2029 6.70661E-03-1.89243E-03-2.04506E-03-3.63657E-04 7.30350E-05-2.05016E-04
 -1      2030-3.66107E-04 1.02845E-04 9.79217E-05-4.00865E-04 7.85064E-05-2.76909E-04
 -1      2031 8.74588E-04-2.64279E-04-2.48696E-04-4.74073E-04 9.65539E-06 2.44540E-04
 -1      2032-1.09174E-03 9.68246E-04 2.68569E-04 2.18705E-04 4.94011E-04-1.07092E-04
 -1      2033-3.47764E-04 1.82769E-04 1.37958E-04 7.16460E-04 4.46003E-04 7.79896E-04
 -1      2034-1.08682E-04-9.32201E-05-2.83761E-05 2.93566E-04-4.97366E-04-8.27975E-04
 -1      2035 3.86700E-04 6.57503E-04-9.33449E-05 2.87444E-04-5.64630E-04 2.69315E-04
 -1      2036 6.09713E-03-1.89432E-03-1.78947E-03-2.37997E-04 1.22909E-05-1.73006E-04
 -1      2037-2.59910E-03 7.70861E-04 5.75398E-04-2.82104E-05 1.73403E-04 4.64120E-06
 -1      2038-1.00635E-09-2.60904E-08 2.18079E-08-3.49811E-09-1.52860E-08-1.71075E-09
 -1      2039 7.46767E-04-2.12790E-04-1.86806E-04-4.01953E-04-5.50141E-05 2.71290E-04
 -1      2040 1.56713E-03-3.13296E-04-6.04419E-04 3.14112E-04-2.14331E-04 6.48017E-05
 -1      2041 1.27489E-02-5.46202E-03 6.23005E-05-1.50100E-02 8.01001E-07 4.25807E-03
 -1      2042 4.44409E-03-1.89478E-03-6.79887E-04-1.39699E-03-2.24352E-04 7.63678E-04
 -1      2043-1.83838E-02 5.34467E-03 5.49486E-03-1.83136E-04 2.06992E-04-1.18136E-04
 -1      2044-1.87102E-02 5.87103E-03 5.63964E-03-5.35704E-05-3.18928E-05-2.39378E-06
 -1      2045 7.82495E-03-2.10723E-03-3.15434E-03-2.41653E-03-7.01889E-04-2.30896E-03
 -1      2046-2.18091E-03 2.29585E-03 7.04484E-05-2.61855E-03 8.90953E-06-4.11103E-06
 -1      2047 1.36396E-02-1.10057E-02-5.74651E-04-7.76691E-03-1.83632E-03-1.18374E-03
 -1      2048-1.18375E-02 3.45663E-03 3.56543E-03-3.49798E-04 3.53594E-05-1.82743E-05
 -1      2049-4.07910E-05 1.10735E-04-6.65541E-05-3.95263E-05-2.87861E-05-1.05519E-05
 -1      2050-6.68928E-03 1.82092E-03 1.99091E-03 7.11171E-05-2.62744E-05-4.08020E-05
 -1      2051-7.01979E-03 2.06507E-03 2.13398E-03-2.81150E-04 5.48818E-06-1.63612E-04
 -1      2052-8.22105E-03 2.60021E-03 2.46045E-03-1.83162E-04 2.70962E-04-2.37635E-04
 -1      2053-7.56303E-03 2.24648E-03 2.27304E-03-1.85237E-04 6.24902E-05-1.80675E-04
 -1      2054-6.76060E-03 2.73831E-03 1.81221E-03 3.08564E-04-2.39711E-06 5.55116E-05
 -1      2055 1.19626E-03-3.95082E-03 1.19602E-03 2.68097E-04 1.55602E-04-5.91796E-05
 -1      2056 1.45982E-03-4.37599E-03 1.21367E-03 2.18401E-04-2.04366E-04-1.84652E-06
 -1      2057 1.16542E-03-3.85446E-03 1.23492E-03-2.10740E-05 5.11363E-06-3.41704E-05
 -1      2058-2.00918E-02 6.23213E-03 6.00158E-03 3.50943E-05 3.47522E-05-9.89979E-06
 -1      2059-2.27205E-02 6.57566E-03 7.42521E-03 6.04978E-05 3.09008E-04 7.45727E-04
 -1      2060 9.56351E-03-1.64764E-03-3.19614E-03-3.65271E-04-4.49751E-04 1.46908E-03
 -1      2061 4.35884E-03-1.37770E-03-9.99793E-04-4.32844E-04-4.18928E-05-2.60954E-04
 -1      2062-2.78983E-04 7.74744E-05 9.45191E-05-4.02455E-04 7.31191E-05-3.23077E-04
 -1      2063 4.76317E-03-1.19520E-03-1.49110E-03-3.85465E-04 7.61951E-05-2.27024E-04
 -1      2064 5.55403E-03-1.60497E-03-1.48714E-03 2.04580E-04 5.55711E-05 3.81911E-06
 -1      2065 4.74096E-03-1.72124E-03-1.45043E-03 4.29134E-04-3.07309E-04-4.28385E-04
 -1      2066 3.22275E-04-3.10291E-04 4.26293E-06 1.95577E-04-3.19403E-05 3.70673E-06
 -1      2067 5.70494E-04-2.09310E-03 6.42846E-04 4.65313E-04-1.58582E-04-4.67197E-05
 -1      2068 1.61489E-03-1.21015E-03-2.34138E-04-1.43784E-03 1.13374E-04-2.49388E-04
 -1      2069-8.12484E-03 1.94953E-03 2.56940E-03 2.45071E-04 9.58631E-05-1.45287E-04
 -1      2070-8.72346E-03 2.36744E-03 2.97273E-03-1.15582E-04 3.72875E-05-2.73420E-04
 -1      2071-4.61993E-03 1.44919E-03 1.65962E-03 3.94307E-04-8.35650E-05 6.70258E-04
 -1      2072-2.84592E-04 8.50625E-04-2.81387E-04-4.64579E-07 1.71169E-05 3.05769E-05
 -1      2073-9.83431E-06 2.17045E-05-5.08455E-06-2.71535E-06 2.64824E-06-1.20915E-07
 -1      2074-2.74283E-07 9.72478E-06-6.02557E-06 3.97697E-07-3.92964E-06 2.49406E-06
 -1      2075-2.99530E-06 9.02821E-06-7.00008E-06 2.29159E-06 2.52531E-06-1.01625E-06
 -1      2076-2.27515E-02 6.50915E-03 7.50731E-03-6.56940E-04-4.65597E-04-8.81474E-04
 -1      2077-2.09586E-02 5.96216E-03 6.79343E-03-1.20083E-03-1.62118E-04-1.00359E-03
 -1      2078-2.80141E-02 1.41117E-02 4.97843E-03-7.07650E-03-4.73741E-04-1.37310E-03
 -1      2079 3.30165E-05 1.24196E-05-2.26059E-05 4.24368E-05 1.91605E-06-4.94995E-06
 -1      2080 7.43401E-07 1.03367E-06-1.57873E-07 1.37748E-06 4.90145E-07-1.53478E-06
 -1      2081-2.54799E-08 2.40857E-08 4.84919E-08 5.95967E-09 9.76381E-08 2.10124E-09
 -1      2082-4.82488E-04 2.36908E-04 9.23069E-05 4.59791E-04-4.04249E-04 2.38260E-04
 -1      2083 1.17885E-03-4.12345E-04-3.05974E-04-4.43404E-04-6.97185E-06-6.44699E-05
 -1      2084-6.55277E-03 1.06921E-03 2.61905E-03 2.22022E-04 1.52761E-04 3.50873E-04
 -1      2085-1.22167E-02 2.71431E-03 4.12936E-03-9.63874E-04 1.65262E-04-2.27951E-04
 -1      2086 1.01094E-05-1.46857E-04 4.35091E-05 1.86536E-04 2.70166E-04-4.06383E-04
 -1      2087-2.49386E-02 1.91745E-02 2.64209E-03 8.89868E-03 2.25809E-03-1.82081E-04
 -1      2088-1.22211E-08 2.44059E-09 1.56092E-08 1.35165E-10 4.85681E-08 2.48471E-09
 -1      2089 4.86414E-07 1.33866E-05-4.29068E-06 9.83515E-06 2.92923E-06-1.52797E-07
 -1      2090 1.02925E-05 1.27856E-04 1.91992E-05-6.16265E-05 2.04362E-05-2.08611E-05
 -1      2091 6.40161E-06 9.24553E-05-5.65633E-05-2.68339E-05 1.21115E-05 1.45277E-05
 -1      2092-2.95798E-05 7.02608E-05-6.91234E-06-9.40176E-06 1.38582E-05-8.85119E-06
 -1      2093-4.49042E-03 1.75695E-03 1.31276E-03 2.13922E-04 3.13758E-05 1.29879E-04
 -1      2094-1.32315E-02 3.81028E-03 4.01023E-03-4.77958E-04 4.54571E-05 1.03264E-05
 -1      2095-4.35510E-03 1.28857E-03 1.39530E-03-1.85006E-04-6.18072E-05 3.29134E-05
 -1      2096-1.15786E-02 3.46262E-03 3.43661E-03-4.02274E-04-5.55385E-05-1.82729E-04
 -1      2097-1.80181E-02 5.73087E-03 5.46244E-03-3.12048E-04-2.13935E-04-1.95722E-04
 -1      2098-1.16320E-02 1.93585E-03 3.80959E-03-3.98624E-03-5.52056E-04 1.51237E-03
 -1      2099-2.44154E-02 1.15784E-02 4.43719E-03-1.17725E-02 1.99438E-03 9.74291E-04
 -1      2100-2.06508E-02 4.59472E-03 5.90386E-03-3.76515E-03-2.58035E-04 2.39857E-03
 -1      2101-1.94195E-04 7.38286E-04-2.61247E-04 3.70998E-05 1.96010E-05 8.22744E-05
 -1      2102-1.35450E-02 4.11703E-03 4.04154E-03-4.38602E-04-1.07738E-04 2.74408E-04
 -1      2103-4.61382E-03 1.10720E-03 3.09465E-03-8.04861E-03-1.05579E-03 1.88035E-04
 -1      2104-1.94481E-05 1.17998E-05-2.79935E-05 2.58843E-05 1.88497E-05-2.76314E-05
 -1      2105 7.60530E-04 9.19261E-06-3.74639E-04 4.41386E-04-1.48399E-04 1.20571E-04
 -1      2106-1.18492E-05 1.17509E-05-8.24082E-05 2.44712E-05-2.80369E-05-2.09865E-05
 -1      2107-1.15765E-02 3.36180E-03 3.52884E-03-5.00383E-04 4.86537E-05-2.97548E-04
 -1      2108-8.77513E-04 8.65575E-04 3.00385E-04 3.73163E-05-1.36065E-04-3.07040E-05
 -1      2109-8.96733E-06-8.83246E-07-4.38626E-06 4.36624E-06-1.79040E-05 8.01187E-06
 -1      2110 9.06475E-08 1.18022E-05-2.06337E-05 8.98735E-05-4.19469E-05 2.02113E-05
 -1      2111 3.36407E-04-3.70719E-04-5.86375E-05 6.79871E-04-1.27048E-05 2.11342E-05
 -1      2112 3.38410E-04-4.71756E-04 1.18738E-04 6.21060E-04-8.55101E-05 3.84607E-05
 -1      2113-1.69529E-02 4.41769E-03 5.57591E-03-1.46192E-03 5.78498E-05-5.46241E-04
 -1      2114 1.15828E-03-3.83288E-03 1.15823E-03 3.13313E-04-1.96295E-04 2.98490E-05
 -1      2115 6.91720E-03-2.06166E-03-2.06637E-03 6.23584E-05 5.29428E-06 3.09844E-05
 -1      2116 6.69201E-03-2.16383E-03-1.96965E-03-3.45335E-04-3.97892E-05 1.83795E-04
 -1      2117 7.32246E-03-2.28275E-03-2.21608E-03-3.21828E-04-7.60526E-05 2.40596E-04
 -1      2118-3.35581E-06 2.06911E-05-3.69338E-05 7.09939E-05 5.71407E-05-5.76267E-05
 -1      2119 1.71359E-03-1.89985E-04-6.63766E-04 6.65138E-04 1.16690E-04-7.00311E-05
 -1      2120-8.09579E-04 3.58217E-04 1.98561E-04-4.76032E-04-8.23017E-05 7.49786E-05
 -1      2121-1.86244E-05 9.85988E-05-4.85377E-05-1.37874E-04 2.03474E-05-1.76994E-06
 -1      2122 6.52845E-03-2.04705E-03-1.97273E-03-1.56913E-05-1.76201E-05-3.94588E-05
 -1      2123 2.53911E-05 2.34769E-06-1.40269E-05 3.68669E-05-1.13390E-05 3.40043E-06
 -1      2124 2.49531E-03-1.35829E-03-6.88840E-04 3.70246E-04-5.71987E-04-2.44096E-04
 -1      2125 2.06581E-03-6.76244E-04-5.88311E-04 1.05273E-04-7.70850E-05-5.42810E-05
 -1      2126-1.09997E-03 1.69288E-05 3.99195E-04 1.16134E-05-2.43524E-04-4.55118E-05
 -1      2127 2.19279E-04-3.27988E-04 6.31369E-05 5.46550E-04 6.65215E-05 1.12240E-05
 -1      2128 1.62343E-04-4.87258E-06 2.86662E-05-1.08269E-04 1.87240E-05-4.33012E-05
 -1      2129-1.20931E-03 4.39417E-03-1.26431E-03 5.60686E-04-2.26559E-04-1.38851E-04
 -1      2130-1.45009E-05 4.02600E-04-1.61342E-04 4.86028E-04-8.66609E-06-4.38261E-05
 -1      2131-2.12587E-02 6.21070E-03 6.55507E-03-6.04240E-04 9.02089E-05 7.64104E-04
 -1      2132-1.64689E-02 4.51754E-03 4.98636E-03-9.91720E-04 1.84657E-05 4.64415E-04
 -1      2133-5.72979E-05-1.82856E-05 2.46779E-06 1.52949E-05 1.87227E-04-1.63494E-04
 -1      2134 4.70778E-04-1.04484E-04-1.72452E-04 5.32077E-05-3.44589E-05 9.46621E-05
 -1      2135-4.48877E-04 2.76118E-04 8.22368E-05 1.16233E-04 2.19877E-05 1.65295E-04
 -1      2136 6.22707E-04-5.97386E-04-7.05798E-05 5.99272E-04 3.23499E-04-1.95751E-04
 -1      2137-5.86680E-03 6.53728E-04 1.98010E-03 6.72108E-04 2.11662E-04 5.75874E-04
 -1      2138-1.04570E-02 2.34660E-03 3.28239E-03 1.36493E-03-3.96609E-05-1.37784E-03
 -1      2139-2.75028E-04-5.56828E-04 4.77212E-04-1.41987E-04-8.53629E-05-1.66254E-04
 -1      2140-2.32662E-02 5.47079E-03 6.80651E-03 1.06390E-03 8.00450E-07 2.21475E-04
 -1      2141-2.40950E-02 5.74997E-03 8.42146E-03-1.38324E-03-3.71301E-05-8.30145E-06
 -1      2142-2.21198E-08-7.16174E-08 7.09862E-08-1.13878E-08 3.64836E-08-2.50709E-09
 -1      2143-1.80668E-03-7.56793E-05 8.59311E-04 5.94282E-04-1.86820E-04-8.50651E-05
 -1      2144-5.76029E-03 4.13059E-04 2.14466E-03 7.47209E-04-6.51773E-05-7.51354E-04
 -1      2145 8.41444E-03-2.18603E-03-2.71337E-03-1.29154E-03-7.10962E-05-1.56230E-03
 -1      2146-8.55836E-04 7.35782E-04 6.42630E-05 6.15781E-04 1.53407E-06 1.51364E-04
 -1      2147-2.25593E-04-2.22946E-04 2.30726E-04 7.41746E-04 2.42932E-04 1.34214E-04
 -1      2148 1.52397E-03 1.60849E-04-8.79649E-04-3.20880E-03-5.28973E-04-8.97675E-04
 -1      2149-1.04706E-02 2.59003E-03 3.26319E-03-4.45623E-04 1.99218E-06-3.15189E-04
 -1      2150 1.34663E-04-3.80779E-05 7.87855E-05 8.01748E-05 2.84084E-05-1.40499E-05
 -1      2151-2.81041E-04 2.54305E-05 9.62117E-05 3.70742E-04 1.29316E-05-1.31440E-04
 -1      2152-2.50930E-04 7.69696E-05 7.13927E-05-2.91471E-05-3.13026E-04-5.52604E-04
 -1      2153 9.85556E-07 1.05471E-05-3.55180E-06-8.72056E-06 4.81891E-06-1.13689E-06
 -1      2154 4.69605E-06 1.46695E-05-1.11804E-05 1.24523E-05-5.78525E-06-3.31037E-06
 -1      2155 7.02228E-04-2.24917E-03 6.41501E-04 6.47071E-06 5.66759E-05 3.49887E-05
 -1      2156 6.55578E-04-2.01197E-03 5.66972E-04 4.96284E-04 2.78838E-04-2.10725E-05
 -1      2157 3.06846E-04-8.87333E-04 2.78152E-04-4.02258E-05 1.22942E-05 2.83724E-05
 -1      2158 4.14041E-03-1.30821E-03-7.39821E-04 2.41148E-05-2.86584E-05-1.28228E-04
 -1      2159 3.93079E-03-1.33683E-03-1.02285E-03 2.19040E-05-1.23643E-04-5.93588E-05
 -1      2160 1.19927E-02-5.73251E-03-1.65296E-03-1.09026E-03 7.08422E-04 1.69273E-03
 -1      2161 8.21847E-04-2.54557E-03 7.08455E-04 1.81625E-04 1.55907E-04-2.39138E-05
 -1      2162 6.34366E-04-6.30510E-04-8.34360E-06 6.60480E-05-2.50744E-04-6.77371E-06
 -1      2163-1.34509E-02 4.08739E-03 4.03434E-03-2.98588E-04 4.30827E-05-4.67307E-05
 -1      2164-6.55406E-03 1.90131E-03 1.96083E-03-1.96432E-04 1.84985E-05-1.68490E-04
 -1      2165-1.86976E-02 5.54102E-03 5.62840E-03-2.51849E-04-4.80348E-05 1.33222E-04
 -1      2166-1.16813E-02 3.43850E-03 3.53506E-03-3.12793E-04 1.39556E-05 1.10252E-05
 -1      2167-4.83120E-06 2.38602E-05-8.06394E-06 1.73775E-06 2.38143E-06 3.87995E-07
 -1      2168 1.04406E-03-8.60506E-04-3.31235E-04-2.78752E-06 2.91013E-05-3.14500E-06
 -1      2169 1.49060E-03-8.99565E-04-4.05926E-04 7.79657E-04 4.85446E-04 4.40871E-04
 -1      2170-3.76534E-03 1.28980E-03 9.82604E-04-1.01266E-03 8.82381E-05 7.20568E-04
 -1      2171 3.10260E-03-7.70191E-04-1.13397E-03 2.74775E-04 4.34955E-04 4.37572E-04
 -1      2172-6.99077E-04 2.40804E-04 1.53148E-04 8.86671E-04-3.33475E-04-3.65150E-04
 -1      2173 3.36360E-03-1.93211E-04-1.17266E-03 1.04299E-03 1.92217E-05-2.91326E-04
 -1      2174 3.85021E-05-2.37236E-06-1.22780E-05 4.58100E-05 1.54168E-05 6.56427E-06
 -1      2175-2.28494E-02 1.01598E-02 2.26588E-03 3.72331E-03 8.70195E-04-3.89682E-04
 -1      2176-1.25067E-02-1.12786E-03 3.38543E-03-2.31550E-02-6.23461E-04-3.70554E-03
 -1      2177-2.22894E-02 1.84006E-02 3.45489E-03-1.30418E-02-3.96191E-04 2.78472E-03
 -1      2178 2.96266E-05-3.11110E-04 1.35587E-04 2.10767E-04 2.84652E-04 4.58560E-05
 -1      2179-1.63896E-02 4.24244E-03 4.37145E-03-5.98614E-04 3.74091E-04 2.13004E-03
 -1      2180-1.71367E-05-1.67957E-04 3.32870E-05-7.86393E-05 1.25177E-04 8.74342E-05
 -1      2181 1.94581E-04 2.05325E-04-6.93776E-05 1.77284E-05-7.35661E-05 4.81023E-05
 -1      2182 1.25798E-04 5.85792E-04-6.73485E-05 6.69764E-05 3.53081E-04 4.10042E-05
 -1      2183-2.93949E-02 1.28638E-02 5.57128E-03 1.39557E-03 2.95849E-04 4.23316E-04
 -1      2184 9.70200E-04 6.29518E-03 2.60345E-04 4.44503E-03-2.19397E-04 1.22838E-03
 -1      2185 1.48620E-03-3.03050E-03-4.47358E-05-1.49035E-03-3.75867E-04 1.34287E-04
 -1      2186-3.92074E-03 1.18201E-03 9.17183E-04 9.69616E-05 1.26691E-04-6.47879E-05
 -1      2187-1.25265E-03 4.26193E-03-1.30384E-03 3.92257E-05-1.76867E-05-1.04033E-04
 -1      2188-1.49035E-03 4.44761E-03-1.10550E-03 1.52445E-05-2.26669E-04 4.89490E-05
 -1      2189 3.39475E-06-1.60603E-06 3.30619E-07 1.65353E-06 3.41633E-06 2.76007E-07
 -1      2190 9.28607E-06 1.71508E-06-2.70765E-06 1.30303E-05 9.35195E-06 8.12492E-07
 -1      2191-2.96625E-05 1.03453E-05 4.46130E-06-2.01098E-05-6.43171E-06 3.74420E-06
 -1      2192-2.60734E-02 1.81150E-02 3.76208E-03-4.14560E-03 1.27889E-03-2.30696E-03
 -1      2193-2.89527E-02 1.08026E-02 5.76006E-03 2.47306E-03-2.24119E-04-7.98261E-05
 -1      2194-1.84376E-02 5.41636E-03 5.52446E-03 9.27043E-05-1.55995E-07 4.87587E-05
 -1      2195-1.17747E-02 2.60050E-03 2.88388E-03 2.47958E-03 7.25642E-04-5.29059E-03
 -1      2196-1.46231E-02 5.25601E-03 3.23412E-03 1.92111E-04-2.11821E-05-6.83459E-04
 -1      2197-1.60639E-02 4.60754E-03 4.24587E-03-2.08049E-04-9.46885E-05-1.29744E-03
 -1      2198-8.33854E-03 1.34659E-03 3.29361E-03 4.67897E-03-1.41701E-04 5.23055E-05
 -1      2199-1.37983E-02 3.58580E-03 3.64622E-03 6.63634E-04-1.40230E-03 6.01971E-03
 -1      2200-1.20352E-02 3.62011E-03 3.20264E-03-1.31884E-03 5.25341E-04-2.71683E-04
 -1      2201-5.47749E-05 7.80255E-04-2.66092E-04-1.20072E-03-8.96015E-05-3.74084E-05
 -1      2202-7.10030E-06-3.36635E-06 1.82227E-07 9.49716E-07-1.07733E-05-1.00056E-05
 -1      2203-6.31337E-06-2.89477E-08-4.66802E-06 2.72149E-06-9.03735E-06-1.08030E-06
 -1      2204-2.11315E-05-2.17147E-05 5.76757E-05-1.37087E-05-2.86915E-05-2.76814E-05
 -1      2205-2.24142E-05 1.03290E-04-3.43793E-05 3.50903E-05-8.67574E-05-1.25181E-05
 -1      2206 4.86900E-03-2.68841E-04-5.23558E-05-5.24069E-03 1.18902E-03 1.70296E-03
 -1      2207-4.23411E-03-6.06756E-03 1.94475E-03-1.98259E-02-8.73929E-05 2.07746E-03
 -1      2208-1.49014E-03 4.04042E-03-8.13538E-04-1.52861E-04-7.44273E-05 3.28182E-05
 -1      2209-4.05846E-03 2.00325E-03 9.45795E-04-5.66386E-03-7.24442E-05 2.71481E-03
 -1      2210-6.82683E-03 2.05311E-04 1.49253E-03-1.21380E-03 4.65907E-04 6.23816E-04
 -1      2211 1.09207E-02-2.04668E-03-2.53496E-03 1.76787E-03 1.40908E-04-9.25499E-05
 -1      2212 8.77746E-03-7.83180E-03 1.40546E-04-5.79730E-03-7.45492E-04-1.11959E-03
 -1      2213 9.53723E-03-3.33065E-03-1.23023E-03 2.08545E-03 4.69413E-04 1.27570E-03
 -1      2214-1.13189E-02 2.87590E-03 4.23739E-03-1.39991E-04-1.18107E-03-5.24105E-04
 -1      2215-1.12018E-02 3.41327E-03 3.71216E-03-1.36745E-04-3.26502E-04-3.08016E-04
 -1      2216-1.00660E-02 2.60882E-03 3.64223E-03-2.49900E-04 4.46446E-04 2.34006E-04
 -1      2217-1.15001E-02 4.02246E-03 3.77516E-03 2.83465E-06-9.85083E-04 3.76374E-04
 -1      2218-1.17141E-02 3.81881E-03 2.43930E-03 5.16821E-04 1.71684E-03-5.34592E-04
 -1      2219-1.88834E-04 4.12404E-04-9.43865E-05 3.59463E-04 2.29420E-05-3.34015E-05
 -1      2220-3.57526E-04-2.14355E-04 4.77074E-04-7.03449E-04-2.97167E-04 1.86723E-04
 -1      2221 1.10210E-03-3.35005E-03 9.75108E-04 1.82941E-04 1.85128E-04-3.35612E-05
 -1      2222 3.54220E-04-1.39988E-02 2.13674E-03-2.17797E-02-5.75011E-04 9.66055E-04
 -1      2223 3.64083E-03-1.49833E-03-6.51370E-04-1.03275E-03-1.41033E-04-8.42066E-04
 -1      2224-6.58431E-04 2.05800E-03-4.93216E-04 8.39774E-05 8.94984E-06 4.67152E-05
 -1      2225-1.13068E-02 3.20319E-03 2.67816E-03-2.06626E-03 3.05033E-04 3.13947E-04
 -1      2226-1.06694E-02 2.85224E-03 3.85875E-03-1.47913E-03 1.96906E-04 6.73746E-04
 -1      2227-8.59549E-03 2.79810E-03 2.69249E-03-5.73319E-04-4.96828E-04 5.83511E-04
 -1      2228 2.00192E-04-1.22930E-02 1.39547E-03-2.06595E-02-4.70289E-04-6.52537E-04
 -1      2229-2.05023E-02 3.28966E-03 2.53107E-03-1.29716E-02-6.83619E-05-1.61206E-03
 -1      2230-2.20306E-02 5.57829E-03 5.48326E-03-1.94108E-02 1.94779E-04 5.98812E-04
 -1      2231-3.37186E-06 8.66481E-06-3.72636E-06-3.90442E-06-2.13640E-06-8.55406E-07
 -1      2232-1.03620E-05 7.33118E-06-1.69376E-07 1.40547E-06-3.99432E-06 3.55983E-07
 -1      2233-1.51501E-04 2.12270E-03-8.41841E-04 2.39728E-04-3.80164E-05-2.61369E-04
 -1      2234-1.90774E-02 5.75880E-03 5.75595E-03-3.70489E-04-2.20141E-05 2.44921E-04
 -1      2235-7.06187E-06 1.86449E-05-5.39801E-06 2.73663E-06-5.26281E-07-4.57839E-07
 -1      2236-1.42128E-02 3.27074E-03 5.04344E-03-1.96092E-03-5.04808E-04-1.06153E-03
 -1      2237-9.51976E-03 1.70640E-03 1.69875E-03-1.28462E-03-7.28850E-04 2.84144E-05
 -1      2238-7.25933E-03 2.51696E-03 1.40289E-04 4.07365E-05-1.23275E-04-3.11907E-04
 -1      2239-7.40386E-04 1.81373E-04 1.63284E-04-6.58511E-05 4.65324E-07-2.74183E-04
 -1      2240-6.33375E-03 2.10832E-04 1.86696E-03-6.19496E-04-5.76773E-04-7.97127E-04
 -1      2241-8.29592E-05 6.87521E-05-2.24976E-05-9.50183E-05-4.26927E-06-5.70531E-07
 -1      2242 5.05808E-03-1.57226E-03-1.48615E-03 3.29649E-05-8.25052E-06 3.50848E-06
 -1      2243-1.62753E-02 4.71342E-03 5.09554E-03-4.78692E-04-4.38837E-05-1.35819E-04
 -1      2244-7.57981E-03 1.76885E-03 1.91180E-03 9.71722E-04 8.48255E-04 9.04188E-04
 -1      2245-2.17544E-02 6.18781E-03 7.02716E-03 1.71143E-04 3.12679E-05 1.39559E-04
 -1      2246-1.15513E-02 3.38791E-03 3.45861E-03-3.52455E-04 1.81161E-05 8.41588E-05
 -1      2247-1.91202E-02 5.97290E-03 5.73765E-03 3.23825E-05 4.88327E-06 2.14271E-05
 -1      2248-1.82514E-02 5.48686E-03 5.47360E-03-1.84451E-04 2.17849E-05 1.65624E-04
 -1      2249 3.25364E-08-1.95688E-07 8.81561E-08-2.54697E-08-3.51183E-08-1.49579E-08
 -1      2250-1.30322E-02 3.83625E-03 3.90787E-03-3.40957E-04-1.00505E-05 1.28385E-06
 -1      2251 6.74022E-09-1.81301E-07 3.91702E-08-2.92011E-08-1.33874E-09-1.57149E-08
 -1      2252-5.31767E-04 7.66431E-05 1.86416E-04 1.70437E-04 4.00513E-05 1.69148E-04
 -1      2253-2.34649E-04-4.55621E-04 1.30686E-04 2.43032E-04-3.68016E-04-2.92920E-04
 -1      2254-5.20937E-03 1.49198E-03 1.54872E-03-2.39770E-04 2.79079E-05-1.91985E-04
 -1      2255-2.70963E-04 3.02987E-04-9.71668E-07 6.19604E-04 3.83070E-05 3.43638E-06
 -1      2256-1.42325E-05 5.95515E-05-3.05836E-05-1.68872E-05-6.31287E-06-1.23744E-05
 -1      2257-1.32565E-06 8.38722E-07 9.17131E-07-1.83933E-05-3.60479E-06 4.92038E-06
 -1      2258-1.04737E-02 2.79076E-03 4.10835E-03 1.53027E-03 3.03370E-04-5.63985E-04
 -1      2259-1.19525E-02 3.68752E-03 3.04816E-03-1.11094E-03-1.16275E-04 1.54261E-03
 -1      2260-1.09210E-02 2.02491E-03 3.84696E-03-5.09003E-04 1.39130E-03 1.36507E-04
 -1      2261-1.04289E-02 1.49003E-03 3.97517E-03-6.06044E-04 1.20795E-03 5.32692E-04
 -1      2262-1.36134E-02 3.57930E-03 2.81949E-03-1.94060E-03-1.06635E-03 1.85390E-03
 -1      2263-1.70115E-02 8.43329E-03 3.19294E-03-1.08657E-02 6.54789E-04-1.30311E-03
 -1      2264-1.40180E-02 1.73800E-02 2.71606E-03-1.82568E-02 9.11067E-05 1.26043E-04
 -1      2265-2.36003E-02 6.99875E-03 4.86192E-03-4.19689E-04-5.01978E-04 2.34727E-04
 -1      2266 1.14300E-04-2.47290E-04 3.45245E-05 1.09173E-04 2.84125E-04-1.33020E-04
 -1      2267 3.29271E-04-1.26211E-04-1.11407E-04 2.09212E-05 5.15355E-05 8.34822E-05
 -1      2268 4.29926E-07-4.19962E-07-9.54262E-07-2.38763E-07 3.63934E-07 6.93715E-07
 -1      2269 1.69736E-06 8.58105E-07-2.55055E-06 6.75764E-07-1.18217E-06 7.09948E-08
 -1      2270 1.71288E-06-1.78601E-07-3.05805E-06-2.32933E-06-1.81370E-06-1.56279E-06
 -1      2271 1.13366E-06-3.00921E-07 2.61819E-07 1.12844E-07 1.57307E-06 1.87840E-06
 -1      2272 3.18365E-06 1.05289E-06-9.38019E-07 3.93869E-08 6.48266E-08 5.05575E-06
 -1      2273 1.71262E-03-5.49945E-04-4.62410E-04-1.35716E-03 3.40074E-04-1.08004E-03
 -1      2274 6.37957E-04-8.90886E-05-1.92987E-04 2.66633E-05-8.32554E-05 2.18633E-05
 -1      2275-7.07774E-03 9.46589E-04 2.30920E-03-1.22261E-02-3.66643E-04 1.74675E-03
 -1      2276-1.35429E-02 1.93579E-02 1.86156E-03-1.87886E-02 5.90966E-05 2.08209E-04
 -1      2277-8.29058E-04 2.82810E-03-8.20930E-04 3.79793E-04-2.15653E-04 1.21210E-05
 -1      2278-7.04034E-07-3.55980E-07-1.03748E-06 9.12241E-07-3.87603E-08 8.23347E-08
 -1      2279 3.53345E-06-5.63071E-07-4.90252E-06-9.17500E-07-2.76972E-06-5.89685E-07
 -1      2280 1.40426E-06-6.17217E-07-1.31291E-06-1.32330E-06 3.16436E-08 1.06479E-07
 -1      2281-1.14494E-02 2.33832E-03 4.34746E-03-1.68256E-03-3.56127E-04 2.35790E-04
 -1      2282-1.03251E-02 1.50869E-03 1.94453E-03-1.65994E-03 7.02824E-04-9.69152E-06
 -1      2283 8.58233E-04-3.06433E-03 9.19367E-04 4.42053E-04-2.39965E-04 7.88085E-05
 -1      2284 1.14095E-03-3.31373E-03 9.43167E-04-8.85817E-05 3.72602E-06 5.74817E-05
 -1      2285-8.64232E-05 2.00627E-04-2.56286E-05 1.96429E-04 1.81766E-04 3.82974E-06
 -1      2286-8.77640E-06 4.33081E-04-1.82860E-04 4.71015E-04-5.56160E-05-5.50304E-05
 -1      2287 1.89158E-04-7.61536E-04 2.44482E-04 4.57638E-04 1.36976E-05-1.81267E-06
 -1      2288 6.34387E-05-5.69731E-04 2.37097E-04 9.25116E-05 3.05257E-05-3.69703E-06
 -1      2289-2.10315E-04 3.87613E-04-9.99024E-05 5.70600E-04-2.58306E-04-2.77846E-05
 -1      2290 3.05815E-03-1.21049E-03-4.87244E-04-3.23226E-06 1.84808E-04 5.62408E-05
 -1      2291 4.45457E-04-1.53958E-03 4.60423E-04 2.89861E-04-1.78817E-04-3.77165E-06
 -1      2292-1.26010E-02 3.53799E-03 3.88252E-03-2.03954E-03 5.84639E-05 1.06005E-03
 -1      2293 5.06136E-04-4.22341E-04-1.55835E-04-6.12913E-06 4.35730E-05 3.89025E-05
 -1      2294-8.78606E-03 2.59420E-03 2.93677E-03 1.21175E-04 2.08421E-04 2.21659E-04
 -1      2295 1.83133E-06-6.77418E-07-3.51115E-07-3.82854E-06-1.93221E-06 3.51589E-06
 -1      2296 8.61080E-04-2.81618E-04-2.33200E-04 1.36605E-04-8.57929E-05 5.07009E-05
 -1      2297-2.04880E-04 1.40199E-03-4.55321E-04-4.36704E-05-9.47625E-06-9.91143E-05
 -1      2298-6.67296E-04 1.81991E-03-5.45997E-04 3.53419E-04-2.03518E-04-4.41959E-05
 -1      2299-4.58964E-06 1.99595E-05-6.51636E-06 1.67633E-06 8.67689E-07-1.49525E-08
 -1      2300 1.77370E-03-1.41911E-04-8.35842E-05-2.04244E-03 2.77882E-04-4.31470E-04
 -1      2301-1.16516E-04-2.40093E-04 1.84899E-04-9.40600E-05 6.20362E-05-7.91862E-05
 -1      2302-3.01948E-05-7.17269E-05-1.88688E-04-1.10760E-04-1.15466E-04 4.78782E-05
 -1      2303-5.60453E-07 6.07090E-05-2.09465E-05 2.59096E-05 3.04227E-05 2.25278E-05
 -1      2304-5.98913E-05 9.79025E-05-3.68734E-05 5.04660E-05 8.60154E-05 4.22899E-06
 -1      2305 3.24244E-05 5.20645E-05-2.29350E-05-2.07740E-05-1.24733E-05-3.00574E-06
 -1      2306 1.35199E-06 8.51730E-08-2.19826E-06-2.21920E-07-8.28360E-07-2.72164E-07
 -1      2307-6.57428E-07-6.83615E-07 1.15975E-06 2.22117E-07 1.54650E-06 1.31988E-07
 -1      2308-7.74738E-08-8.91933E-07 1.14706E-06-2.85891E-07 5.06778E-07-1.05853E-07
 -1      2309-1.16657E-02 3.56844E-03 2.15758E-03-3.02225E-04 1.04396E-03 6.75923E-04
 -1      2310-1.14710E-02 3.38086E-03 3.96875E-03 1.29595E-04-1.43976E-03-1.11352E-04
 -1      2311-3.05021E-10-5.50778E-09-5.51898E-08-1.90346E-07 6.25391E-08-8.34915E-08
 -1      2312 3.42319E-08-1.36736E-07 1.72432E-07-1.72836E-07 3.53570E-08-6.74069E-08
 -1      2313-1.81779E-09-2.33333E-08 2.12448E-08 8.28839E-10-3.26465E-10-1.86204E-10
 -1      2314-1.61525E-03 2.87836E-04-2.77722E-04-5.75181E-04-5.47641E-05 2.85678E-04
 -1      2315 1.83452E-04-2.19449E-04-2.55221E-04-1.56071E-04-4.99031E-05 6.06869E-05
 -1      2316-3.06978E-05-1.30685E-05-5.06192E-06-1.54933E-05-4.43062E-06-3.58289E-05
 -1      2317-1.18843E-02 1.97080E-03 5.32277E-03-2.19347E-03 5.04196E-04-4.09366E-04
 -1      2318 6.13617E-06 7.89639E-07-3.11433E-06 6.12044E-07-9.06826E-07 3.96006E-06
 -1      2319-1.66424E-07 3.59558E-07 1.70648E-07-2.10838E-07 6.29709E-07-4.97562E-08
 -1      2320-4.63995E-07 5.92341E-08 9.85344E-07 4.56419E-08 1.14788E-06 1.16627E-07
 -1      2321 1.61669E-07-8.53853E-07 4.90490E-07 2.92612E-07-3.85193E-07 1.69978E-08
 -1      2322-2.47538E-07 1.90594E-07 4.44558E-07 1.87803E-07 7.55275E-07 2.22703E-07
 -1      2323-1.19794E-02 4.23812E-03 2.01411E-03 5.26979E-04 2.46825E-04 5.58785E-04
 -1      2324-1.13591E-02 3.93313E-03 1.91574E-03-6.69374E-05 1.11726E-03-8.48381E-04
 -1      2325 8.26725E-04-2.49528E-03 6.77585E-04 4.37662E-04 2.68185E-04-3.78955E-05
 -1      2326 6.81571E-04-2.28071E-03 6.62394E-04 5.96451E-05 6.27786E-05-3.84175E-05
 -1      2327 2.80653E-04-6.89054E-04 1.32503E-04 7.85812E-04 5.53782E-05 1.29499E-05
 -1      2328-5.36275E-04 9.74834E-04-1.46374E-04 1.77441E-05-1.03413E-04-8.35935E-06
 -1      2329 1.20869E-07-5.30867E-07 2.88404E-07-3.93981E-07-3.10604E-07-1.57261E-07
 -1      2330-1.16547E-07 3.03132E-07 1.06004E-07-7.86619E-08 5.09753E-07 1.10823E-08
 -1      2331-1.12702E-07-1.05294E-06 1.15491E-06 2.12247E-07 4.56472E-07 7.66090E-08
 -1      2332-3.60302E-07-1.52757E-07 9.65307E-07-6.75462E-07 1.08068E-06-3.59265E-07
 -1      2333-1.94530E-06 6.57024E-07-2.83777E-06-9.61653E-08 4.52139E-07-8.61349E-06
 -1      2334 5.13352E-04-1.56354E-03 4.54599E-04 9.13119E-05 9.38438E-05-2.18994E-05
 -1      2335 4.01916E-04-1.61027E-03 4.95422E-04 1.51915E-05-8.30457E-06 4.32782E-06
 -1      2336 4.05934E-04-1.14245E-03 3.26001E-04 7.03790E-04 5.03317E-05 2.70657E-06
 -1      2337-1.56022E-04 1.30955E-04 6.54842E-05 1.89871E-04 4.23602E-04 6.15951E-04
 -1      2338-1.57030E-06 1.29934E-06-1.86501E-06 3.57253E-07-1.21616E-06-3.44225E-06
 -1      2339-3.53617E-04 1.06473E-03-2.90662E-04 5.53943E-05-6.47501E-05 1.49619E-05
 -3
    1PSTEP                         4           1           1          
  100CL  101 1.000000000        2339                     0    1           1
 -4  ERROR       1    1
 -5  STR(%)      1    1    0    0
 -1         1 3.50046E+01
 -1         2 3.18934E+01
 -1         3 3.49129E+01
 -1         4 2.18686E+01
 -1         5 3.48199E+01
 -1         6 3.02539E+01
 -1         7 2.18493E+01
 -1         8 3.45865E+01
 -1         9 3.50956E+01
 -1        10 2.95501E+01
 -1        11 2.97134E+01
 -1        12 2.49412E+01
 -1        13 3.86198E+01
 -1        14 3.86198E+01
 -1        15 2.93323E+01
 -1        16 2.58588E+01
 -1        17 2.84221E+01
 -1        18 2.00259E+01
 -1        19 1.98445E+01
 -1        20 1.98445E+01
 -1        21 3.52182E+01
 -1        22 2.84599E+01
 -1        23 3.50046E+01
 -1        24 3.29309E+01
 -1        25 3.29309E+01
 -1        26 2.90084E+01
 -1        27 3.36552E+01
 -1        28 3.06435E+01
 -1        29 3.19950E+01
 -1        30 2.52791E+01
 -1        31 3.48199E+01
 -1        32 3.38301E+01
 -1        33 3.43706E+01
 -1        34 2.95501E+01
 -1        35 2.97134E+01
 -1        36 2.97134E+01
 -1        37 2.93687E+01
 -1        38 3.05750E+01
 -1        39 2.93323E+01
 -1        40 2.93323E+01
 -1        41 3.19950E+01
 -1        42 2.96244E+01
 -1        43 3.00055E+01
 -1        44 2.99534E+01
 -1        45 3.01028E+01
 -1        46 3.28951E+01
 -1        47 3.36552E+01
 -1        48 2.11034E+01
 -1        49 1.62268E+01
 -1        50 1.46532E+01
 -1        51 1.25963E+01
 -1        52 1.08176E+01
 -1        53 1.20111E+01
 -1        54 2.90084E+01
 -1        55 3.03084E+01
 -1        56 2.98595E+01
 -1        57 2.99489E+01
 -1        58 2.99284E+01
 -1        59 3.10233E+01
 -1        60 2.93074E+01
 -1        61 3.07320E+01
 -1        62 1.64230E+01
 -1        63 1.60323E+01
 -1        64 1.42151E+01
 -1        65 1.21436E+01
 -1        66 1.05239E+01
 -1        67 9.11108E+00
 -1        68 3.50046E+01
 -1        69 3.16609E+01
 -1        70 3.62672E+01
 -1        71 3.62672E+01
 -1        72 3.78165E+01
 -1        73 3.53671E+01
 -1        74 3.50046E+01
 -1        75 3.26155E+01
 -1        76 2.88603E+01
 -1        77 3.62672E+01
 -1        78 3.78165E+01
 -1        79 3.78165E+01
 -1        80 3.38301E+01
 -1        81 2.75269E+01
 -1        82 2.84246E+01
 -1        83 3.77495E+01
 -1        84 3.92108E+01
 -1        85 2.92306E+01
 -1        86 2.89198E+01
 -1        87 3.18934E+01
 -1        88 3.08442E+01
 -1        89 3.10850E+01
 -1        90 3.77495E+01
 -1        91 3.92108E+01
 -1        92 3.92108E+01
 -1        93 2.92306E+01
 -1        94 2.85745E+01
 -1        95 3.45865E+01
 -1        96 3.04350E+01
 -1        97 2.99446E+01
 -1        98 3.40327E+01
 -1        99 2.88666E+01
 -1       100 2.75413E+01
 -1       101 3.00394E+01
 -1       102 2.90561E+01
 -1       103 3.36411E+01
 -1       104 3.40327E+01
 -1       105 3.40327E+01
 -1       106 3.49129E+01
 -1       107 3.38301E+01
 -1       108 2.78890E+01
 -1       109 3.72254E+01
 -1       110 3.93308E+01
 -1       111 4.07576E+01
 -1       112 4.07576E+01
 -1       113 3.71965E+01
 -1       114 2.89198E+01
 -1       115 2.47616E+01
 -1       116 3.18934E+01
 -1       117 3.72254E+01
 -1       118 3.93308E+01
 -1       119 3.93308E+01
 -1       120 4.07576E+01
 -1       121 3.85436E+01
 -1       122 3.71965E+01
 -1       123 2.85745E+01
 -1       124 2.90084E+01
 -1       125 2.99546E+01
 -1       126 3.03084E+01
 -1       127 2.99489E+01
 -1       128 2.99912E+01
 -1       129 3.10233E+01
 -1       130 2.93074E+01
 -1       131 1.08751E+01
 -1       132 1.71046E+01
 -1       133 1.65099E+01
 -1       134 1.46455E+01
 -1       135 1.28151E+01
 -1       136 1.11378E+01
 -1       137 1.15496E+01
 -1       138 3.46578E+01
 -1       139 3.38948E+01
 -1       140 3.12623E+01
 -1       141 2.91241E+01
 -1       142 3.35767E+01
 -1       143 3.02810E+01
 -1       144 3.28501E+01
 -1       145 3.52182E+01
 -1       146 3.00394E+01
 -1       147 3.13847E+01
 -1       148 3.42527E+01
 -1       149 3.42527E+01
 -1       150 2.67482E+01
 -1       151 3.49129E+01
 -1       152 3.19950E+01
 -1       153 2.99667E+01
 -1       154 3.00055E+01
 -1       155 2.99534E+01
 -1       156 3.01028E+01
 -1       157 3.00065E+01
 -1       158 2.83948E+01
 -1       159 1.62268E+01
 -1       160 1.69620E+01
 -1       161 1.52003E+01
 -1       162 1.31840E+01
 -1       163 1.08176E+01
 -1       164 9.48109E+00
 -1       165 3.86198E+01
 -1       166 3.46578E+01
 -1       167 2.99274E+01
 -1       168 3.35767E+01
 -1       169 3.00336E+01
 -1       170 3.17447E+01
 -1       171 3.50956E+01
 -1       172 3.45865E+01
 -1       173 3.06904E+01
 -1       174 3.04350E+01
 -1       175 2.99446E+01
 -1       176 3.42527E+01
 -1       177 2.57224E+01
 -1       178 2.75413E+01
 -1       179 2.64421E+01
 -1       180 2.84221E+01
 -1       181 2.44834E+01
 -1       182 2.32788E+01
 -1       183 2.84221E+01
 -1       184 3.28233E+01
 -1       185 3.25576E+01
 -1       186 3.30391E+01
 -1       187 3.32729E+01
 -1       188 3.52987E+01
 -1       189 3.36998E+01
 -1       190 3.36998E+01
 -1       191 3.73865E+01
 -1       192 3.42781E+01
 -1       193 3.28673E+01
 -1       194 2.85528E+01
 -1       195 2.66737E+01
 -1       196 3.52987E+01
 -1       197 2.83947E+01
 -1       198 3.41406E+01
 -1       199 3.43021E+01
 -1       200 3.73865E+01
 -1       201 3.71859E+01
 -1       202 3.71859E+01
 -1       203 3.21717E+01
 -1       204 3.52987E+01
 -1       205 3.45774E+01
 -1       206 2.84221E+01
 -1       207 3.37448E+01
 -1       208 3.30391E+01
 -1       209 3.32729E+01
 -1       210 3.21717E+01
 -1       211 2.70031E+01
 -1       212 2.70032E+01
 -1       213 3.13171E+01
 -1       214 3.39665E+01
 -1       215 3.39665E+01
 -1       216 2.99546E+01
 -1       217 3.03084E+01
 -1       218 2.99489E+01
 -1       219 2.99912E+01
 -1       220 2.99912E+01
 -1       221 3.10233E+01
 -1       222 2.87745E+01
 -1       223 3.36552E+01
 -1       224 2.78738E+01
 -1       225 3.01028E+01
 -1       226 2.99534E+01
 -1       227 3.00055E+01
 -1       228 2.99667E+01
 -1       229 2.99667E+01
 -1       230 1.44045E+01
 -1       231 1.71046E+01
 -1       232 1.65099E+01
 -1       233 1.46455E+01
 -1       234 1.28151E+01
 -1       235 1.11378E+01
 -1       236 8.97430E+00
 -1       237 1.09345E+01
 -1       238 1.31840E+01
 -1       239 1.52003E+01
 -1       240 1.69620E+01
 -1       241 1.44764E+01
 -1       242 7.73745E+00
 -1       243 1.65059E+01
 -1       244 3.52182E+01
 -1       245 3.08472E+01
 -1       246 3.13847E+01
 -1       247 3.36411E+01
 -1       248 3.40327E+01
 -1       249 2.67482E+01
 -1       250 2.75413E+01
 -1       251 2.88666E+01
 -1       252 2.75270E+01
 -1       253 2.99446E+01
 -1       254 2.91731E+01
 -1       255 2.91731E+01
 -1       256 2.78521E+01
 -1       257 3.08442E+01
 -1       258 3.10850E+01
 -1       259 3.77495E+01
 -1       260 3.92108E+01
 -1       261 2.92306E+01
 -1       262 2.75823E+01
 -1       263 2.81472E+01
 -1       264 3.57972E+01
 -1       265 3.41128E+01
 -1       266 2.88598E+01
 -1       267 3.10850E+01
 -1       268 2.74874E+01
 -1       269 2.75269E+01
 -1       270 3.26155E+01
 -1       271 3.00102E+01
 -1       272 3.12623E+01
 -1       273 1.88687E+01
 -1       274 2.49624E+01
 -1       275 3.78165E+01
 -1       276 3.53671E+01
 -1       277 3.19992E+01
 -1       278 3.62672E+01
 -1       279 3.25933E+01
 -1       280 2.78137E+01
 -1       281 3.16609E+01
 -1       282 3.38301E+01
 -1       283 2.75269E+01
 -1       284 3.61021E+01
 -1       285 3.83942E+01
 -1       286 4.07576E+01
 -1       287 3.85983E+01
 -1       288 2.89198E+01
 -1       289 2.89198E+01
 -1       290 3.18934E+01
 -1       291 3.08442E+01
 -1       292 3.72254E+01
 -1       293 3.93308E+01
 -1       294 3.83942E+01
 -1       295 3.85983E+01
 -1       296 3.71965E+01
 -1       297 2.85745E+01
 -1       298 2.77530E+01
 -1       299 2.82446E+01
 -1       300 2.90084E+01
 -1       301 3.03084E+01
 -1       302 2.98595E+01
 -1       303 2.99489E+01
 -1       304 3.02121E+01
 -1       305 3.10233E+01
 -1       306 1.93156E+01
 -1       307 1.71046E+01
 -1       308 1.71046E+01
 -1       309 1.65099E+01
 -1       310 1.46455E+01
 -1       311 1.28151E+01
 -1       312 1.11378E+01
 -1       313 9.22291E+00
 -1       314 3.52182E+01
 -1       315 3.00394E+01
 -1       316 3.08472E+01
 -1       317 3.36411E+01
 -1       318 3.42527E+01
 -1       319 2.64695E+01
 -1       320 3.49129E+01
 -1       321 3.86198E+01
 -1       322 3.50871E+01
 -1       323 3.38948E+01
 -1       324 3.35767E+01
 -1       325 3.06948E+01
 -1       326 3.13048E+01
 -1       327 3.50956E+01
 -1       328 3.19950E+01
 -1       329 2.99667E+01
 -1       330 2.96244E+01
 -1       331 3.00055E+01
 -1       332 2.99534E+01
 -1       333 3.01028E+01
 -1       334 1.70666E+01
 -1       335 1.36439E+01
 -1       336 1.69620E+01
 -1       337 1.69620E+01
 -1       338 1.52003E+01
 -1       339 1.31840E+01
 -1       340 1.06771E+01
 -1       341 9.01028E+00
 -1       342 3.45865E+01
 -1       343 3.06904E+01
 -1       344 3.04350E+01
 -1       345 2.81806E+01
 -1       346 3.35331E+01
 -1       347 2.88666E+01
 -1       348 2.88666E+01
 -1       349 2.93323E+01
 -1       350 3.50871E+01
 -1       351 3.45902E+01
 -1       352 3.38948E+01
 -1       353 3.35767E+01
 -1       354 3.00336E+01
 -1       355 3.28501E+01
 -1       356 3.50956E+01
 -1       357 2.42158E+01
 -1       358 1.56694E+01
 -1       359 2.33067E+01
 -1       360 2.01175E+01
 -1       361 3.43021E+01
 -1       362 3.14837E+01
 -1       363 3.36998E+01
 -1       364 3.73865E+01
 -1       365 3.71859E+01
 -1       366 3.36998E+01
 -1       367 3.73865E+01
 -1       368 2.65864E+01
 -1       369 3.71859E+01
 -1       370 3.52987E+01
 -1       371 2.99467E+01
 -1       372 1.73401E+01
 -1       373 3.41406E+01
 -1       374 3.25576E+01
 -1       375 3.13171E+01
 -1       376 3.30391E+01
 -1       377 3.32729E+01
 -1       378 2.76680E+01
 -1       379 4.24891E+00
 -1       380 2.87745E+01
 -1       381 1.44045E+01
 -1       382 2.93074E+01
 -1       383 1.64230E+01
 -1       384 2.33451E+01
 -1       385 1.49559E+01
 -1       386 1.36439E+01
 -1       387 2.11034E+01
 -1       388 2.83948E+01
 -1       389 2.88100E+01
 -1       390 2.72320E+01
 -1       391 2.55407E+01
 -1       392 2.55407E+01
 -1       393 1.04404E+01
 -1       394 5.62399E+00
 -1       395 3.41406E+01
 -1       396 3.32729E+01
 -1       397 2.66737E+01
 -1       398 2.83811E+01
 -1       399 3.49123E+01
 -1       400 2.69221E+01
 -1       401 3.08097E+01
 -1       402 2.98150E+01
 -1       403 2.99795E+01
 -1       404 3.00281E+01
 -1       405 3.14990E+01
 -1       406 3.32752E+01
 -1       407 2.73793E+01
 -1       408 1.86651E+01
 -1       409 1.54400E+01
 -1       410 1.36248E+01
 -1       411 1.17070E+01
 -1       412 1.14144E+01
 -1       413 2.34155E+01
 -1       414 3.19607E+01
 -1       415 2.96584E+01
 -1       416 3.00839E+01
 -1       417 2.99042E+01
 -1       418 2.99387E+01
 -1       419 3.04759E+01
 -1       420 3.01653E+01
 -1       421 3.00197E+01
 -1       422 2.35775E+01
 -1       423 1.62276E+01
 -1       424 1.51237E+01
 -1       425 1.31793E+01
 -1       426 1.13337E+01
 -1       427 9.81751E+00
 -1       428 2.20579E+01
 -1       429 3.10736E+01
 -1       430 3.49123E+01
 -1       431 3.33328E+01
 -1       432 3.39641E+01
 -1       433 3.62672E+01
 -1       434 3.70419E+01
 -1       435 3.65918E+01
 -1       436 3.28105E+01
 -1       437 3.50046E+01
 -1       438 3.38101E+01
 -1       439 3.07379E+01
 -1       440 3.25637E+01
 -1       441 3.70419E+01
 -1       442 3.78165E+01
 -1       443 3.48550E+01
 -1       444 2.82276E+01
 -1       445 3.20420E+01
 -1       446 3.06785E+01
 -1       447 2.79757E+01
 -1       448 3.30870E+01
 -1       449 3.84801E+01
 -1       450 3.42207E+01
 -1       451 2.90752E+01
 -1       452 3.17531E+01
 -1       453 3.18934E+01
 -1       454 3.13688E+01
 -1       455 3.09646E+01
 -1       456 3.44173E+01
 -1       457 3.84801E+01
 -1       458 3.92108E+01
 -1       459 3.42207E+01
 -1       460 2.89025E+01
 -1       461 2.52215E+01
 -1       462 3.45865E+01
 -1       463 3.25108E+01
 -1       464 3.01898E+01
 -1       465 3.19886E+01
 -1       466 3.14496E+01
 -1       467 2.82040E+01
 -1       468 2.46953E+01
 -1       469 2.59540E+01
 -1       470 2.95477E+01
 -1       471 3.13486E+01
 -1       472 3.38369E+01
 -1       473 3.40327E+01
 -1       474 3.44728E+01
 -1       475 3.49129E+01
 -1       476 3.23229E+01
 -1       477 2.73273E+01
 -1       478 3.16901E+01
 -1       479 3.08596E+01
 -1       480 3.25572E+01
 -1       481 3.82781E+01
 -1       482 4.00442E+01
 -1       483 4.07576E+01
 -1       484 3.89771E+01
 -1       485 3.30581E+01
 -1       486 2.68407E+01
 -1       487 2.48514E+01
 -1       488 3.34945E+01
 -1       489 3.45594E+01
 -1       490 3.82781E+01
 -1       491 3.93308E+01
 -1       492 4.00442E+01
 -1       493 3.96506E+01
 -1       494 3.78701E+01
 -1       495 3.28855E+01
 -1       496 2.91440E+01
 -1       497 2.91704E+01
 -1       498 2.94815E+01
 -1       499 3.01315E+01
 -1       500 3.01287E+01
 -1       501 2.99701E+01
 -1       502 3.05072E+01
 -1       503 3.01653E+01
 -1       504 2.00912E+01
 -1       505 1.39898E+01
 -1       506 1.68072E+01
 -1       507 1.55777E+01
 -1       508 1.37303E+01
 -1       509 1.19764E+01
 -1       510 1.13437E+01
 -1       511 2.50847E+01
 -1       512 3.66388E+01
 -1       513 3.42763E+01
 -1       514 3.25785E+01
 -1       515 3.01932E+01
 -1       516 3.13504E+01
 -1       517 3.19289E+01
 -1       518 3.15655E+01
 -1       519 3.39728E+01
 -1       520 3.24658E+01
 -1       521 3.26288E+01
 -1       522 3.07120E+01
 -1       523 3.28187E+01
 -1       524 3.42527E+01
 -1       525 3.05005E+01
 -1       526 3.08306E+01
 -1       527 3.21226E+01
 -1       528 2.89269E+01
 -1       529 3.09808E+01
 -1       530 2.99861E+01
 -1       531 2.99795E+01
 -1       532 3.00281E+01
 -1       533 3.00547E+01
 -1       534 2.92006E+01
 -1       535 2.23108E+01
 -1       536 1.65944E+01
 -1       537 1.60811E+01
 -1       538 1.41921E+01
 -1       539 1.20008E+01
 -1       540 1.01494E+01
 -1       541 2.40505E+01
 -1       542 3.86198E+01
 -1       543 3.66388E+01
 -1       544 3.22926E+01
 -1       545 3.17521E+01
 -1       546 3.18052E+01
 -1       547 3.08891E+01
 -1       548 3.34201E+01
 -1       549 3.23229E+01
 -1       550 2.97639E+01
 -1       551 3.26384E+01
 -1       552 3.05627E+01
 -1       553 3.01898E+01
 -1       554 3.20986E+01
 -1       555 2.99875E+01
 -1       556 2.66319E+01
 -1       557 2.69917E+01
 -1       558 2.61504E+01
 -1       559 3.86198E+01
 -1       560 2.75955E+01
 -1       561 2.42240E+01
 -1       562 2.84221E+01
 -1       563 2.64527E+01
 -1       564 2.21639E+01
 -1       565 1.98445E+01
 -1       566 2.15616E+01
 -1       567 2.58505E+01
 -1       568 2.42240E+01
 -1       569 3.32393E+01
 -1       570 3.26905E+01
 -1       571 3.27984E+01
 -1       572 3.31560E+01
 -1       573 3.42858E+01
 -1       574 3.44992E+01
 -1       575 3.36998E+01
 -1       576 2.67721E+01
 -1       577 3.51587E+01
 -1       578 3.58323E+01
 -1       579 3.35727E+01
 -1       580 3.07101E+01
 -1       581 2.76133E+01
 -1       582 3.09862E+01
 -1       583 3.18467E+01
 -1       584 2.42103E+01
 -1       585 3.38979E+01
 -1       586 3.42213E+01
 -1       587 3.36165E+01
 -1       588 3.51587E+01
 -1       589 3.72862E+01
 -1       590 3.71859E+01
 -1       591 3.46788E+01
 -1       592 3.37352E+01
 -1       593 3.49380E+01
 -1       594 3.14998E+01
 -1       595 2.84221E+01
 -1       596 3.21942E+01
 -1       597 3.33919E+01
 -1       598 3.31560E+01
 -1       599 3.27223E+01
 -1       600 2.95874E+01
 -1       601 2.70031E+01
 -1       602 2.91601E+01
 -1       603 2.55808E+01
 -1       604 3.34487E+01
 -1       605 3.39665E+01
 -1       606 3.23050E+01
 -1       607 3.29309E+01
 -1       608 2.94815E+01
 -1       609 3.01315E+01
 -1       610 3.01287E+01
 -1       611 2.99701E+01
 -1       612 2.99912E+01
 -1       613 3.05072E+01
 -1       614 2.98989E+01
 -1       615 3.08527E+01
 -1       616 3.36552E+01
 -1       617 3.07645E+01
 -1       618 2.89883E+01
 -1       619 3.00281E+01
 -1       620 2.99795E+01
 -1       621 2.99861E+01
 -1       622 2.99667E+01
 -1       623 3.09808E+01
 -1       624 3.05017E+01
 -1       625 3.21494E+01
 -1       626 2.36677E+01
 -1       627 1.57545E+01
 -1       628 1.68072E+01
 -1       629 1.55777E+01
 -1       630 1.37303E+01
 -1       631 1.19764E+01
 -1       632 2.30712E+01
 -1       633 3.49123E+01
 -1       634 2.18971E+01
 -1       635 9.95439E+00
 -1       636 1.20592E+01
 -1       637 1.41921E+01
 -1       638 1.60811E+01
 -1       639 1.57192E+01
 -1       640 1.11069E+01
 -1       641 1.21217E+01
 -1       642 2.35747E+01
 -1       643 3.52182E+01
 -1       644 3.30327E+01
 -1       645 3.11159E+01
 -1       646 3.25129E+01
 -1       647 3.38369E+01
 -1       648 3.03904E+01
 -1       649 2.78783E+01
 -1       650 2.97682E+01
 -1       651 2.82040E+01
 -1       652 2.81968E+01
 -1       653 2.87358E+01
 -1       654 2.95588E+01
 -1       655 2.91731E+01
 -1       656 2.72261E+01
 -1       657 3.02487E+01
 -1       658 2.81560E+01
 -1       659 2.93482E+01
 -1       660 3.09646E+01
 -1       661 3.44173E+01
 -1       662 3.84801E+01
 -1       663 3.42207E+01
 -1       664 2.84064E+01
 -1       665 3.14003E+01
 -1       666 2.67132E+01
 -1       667 3.19722E+01
 -1       668 3.49550E+01
 -1       669 3.14863E+01
 -1       670 2.99724E+01
 -1       671 2.92862E+01
 -1       672 2.75071E+01
 -1       673 3.06785E+01
 -1       674 3.11450E+01
 -1       675 3.38101E+01
 -1       676 3.13129E+01
 -1       677 3.06363E+01
 -1       678 2.50655E+01
 -1       679 2.19156E+01
 -1       680 3.13895E+01
 -1       681 3.31382E+01
 -1       682 3.45986E+01
 -1       683 3.36832E+01
 -1       684 3.41332E+01
 -1       685 3.44302E+01
 -1       686 3.02035E+01
 -1       687 2.97373E+01
 -1       688 3.32404E+01
 -1       689 3.19604E+01
 -1       690 2.97134E+01
 -1       691 3.16901E+01
 -1       692 3.06785E+01
 -1       693 3.18145E+01
 -1       694 3.72482E+01
 -1       695 3.95759E+01
 -1       696 3.96780E+01
 -1       697 3.37590E+01
 -1       698 2.89198E+01
 -1       699 2.93166E+01
 -1       700 3.31320E+01
 -1       701 3.13688E+01
 -1       702 3.40348E+01
 -1       703 3.82781E+01
 -1       704 3.88625E+01
 -1       705 3.84963E+01
 -1       706 3.78974E+01
 -1       707 3.28855E+01
 -1       708 2.81638E+01
 -1       709 2.87332E+01
 -1       710 2.87885E+01
 -1       711 2.86265E+01
 -1       712 2.96584E+01
 -1       713 3.00839E+01
 -1       714 2.99042E+01
 -1       715 3.00805E+01
 -1       716 3.06177E+01
 -1       717 2.51694E+01
 -1       718 1.82101E+01
 -1       719 1.71046E+01
 -1       720 1.68072E+01
 -1       721 1.55777E+01
 -1       722 1.37303E+01
 -1       723 1.19764E+01
 -1       724 1.01804E+01
 -1       725 1.92958E+01
 -1       726 3.24658E+01
 -1       727 3.26288E+01
 -1       728 3.04433E+01
 -1       729 3.22442E+01
 -1       730 3.39469E+01
 -1       731 3.03611E+01
 -1       732 3.06912E+01
 -1       733 3.21226E+01
 -1       734 3.39943E+01
 -1       735 3.68535E+01
 -1       736 3.44909E+01
 -1       737 3.37357E+01
 -1       738 3.21357E+01
 -1       739 3.09998E+01
 -1       740 3.32002E+01
 -1       741 3.47331E+01
 -1       742 3.06636E+01
 -1       743 3.09808E+01
 -1       744 2.97956E+01
 -1       745 2.98150E+01
 -1       746 2.99795E+01
 -1       747 3.00281E+01
 -1       748 2.35847E+01
 -1       749 1.53553E+01
 -1       750 1.53029E+01
 -1       751 1.69620E+01
 -1       752 1.60811E+01
 -1       753 1.41921E+01
 -1       754 1.19305E+01
 -1       755 9.84370E+00
 -1       756 1.97926E+01
 -1       757 3.21500E+01
 -1       758 3.26384E+01
 -1       759 3.05627E+01
 -1       760 2.93078E+01
 -1       761 3.08568E+01
 -1       762 3.11998E+01
 -1       763 2.88666E+01
 -1       764 2.90994E+01
 -1       765 2.93323E+01
 -1       766 3.28310E+01
 -1       767 3.48387E+01
 -1       768 3.42425E+01
 -1       769 3.37357E+01
 -1       770 3.18052E+01
 -1       771 3.14418E+01
 -1       772 3.39728E+01
 -1       773 3.23229E+01
 -1       774 2.99718E+01
 -1       775 2.93323E+01
 -1       776 2.54289E+01
 -1       777 2.35079E+01
 -1       778 3.05017E+01
 -1       779 2.99772E+01
 -1       780 2.99512E+01
 -1       781 2.99409E+01
 -1       782 3.00156E+01
 -1       783 3.05631E+01
 -1       784 3.19592E+01
 -1       785 1.85678E+01
 -1       786 1.61295E+01
 -1       787 1.52210E+01
 -1       788 1.44342E+01
 -1       789 1.05611E+01
 -1       790 2.99325E+01
 -1       791 3.11012E+01
 -1       792 2.03194E+01
 -1       793 2.74739E+01
 -1       794 9.96436E+00
 -1       795 1.06708E+01
 -1       796 2.97419E+01
 -1       797 3.14813E+01
 -1       798 2.89355E+01
 -1       799 2.26596E+01
 -1       800 3.11517E+01
 -1       801 2.99664E+01
 -1       802 2.67616E+01
 -1       803 1.15601E+01
 -1       804 1.33984E+01
 -1       805 1.23699E+01
 -1       806 1.87632E+01
 -1       807 3.50046E+01
 -1       808 3.36303E+01
 -1       809 3.65918E+01
 -1       810 3.78165E+01
 -1       811 3.50046E+01
 -1       812 3.78165E+01
 -1       813 3.33328E+01
 -1       814 3.21382E+01
 -1       815 3.70419E+01
 -1       816 3.62672E+01
 -1       817 3.44413E+01
 -1       818 3.25637E+01
 -1       819 3.62672E+01
 -1       820 3.28617E+01
 -1       821 3.15805E+01
 -1       822 2.87471E+01
 -1       823 3.28617E+01
 -1       824 3.23372E+01
 -1       825 2.91855E+01
 -1       826 2.92306E+01
 -1       827 2.90752E+01
 -1       828 2.93059E+01
 -1       829 3.42207E+01
 -1       830 2.97548E+01
 -1       831 3.92108E+01
 -1       832 3.30870E+01
 -1       833 3.92108E+01
 -1       834 3.77495E+01
 -1       835 3.84801E+01
 -1       836 2.82276E+01
 -1       837 3.12271E+01
 -1       838 3.12271E+01
 -1       839 3.23130E+01
 -1       840 3.02372E+01
 -1       841 2.97456E+01
 -1       842 3.18897E+01
 -1       843 3.14496E+01
 -1       844 2.95003E+01
 -1       845 3.17929E+01
 -1       846 3.40327E+01
 -1       847 3.40327E+01
 -1       848 3.38369E+01
 -1       849 3.44629E+01
 -1       850 2.72375E+01
 -1       851 2.66680E+01
 -1       852 2.98912E+01
 -1       853 3.28617E+01
 -1       854 3.30581E+01
 -1       855 3.71965E+01
 -1       856 2.87471E+01
 -1       857 3.25572E+01
 -1       858 3.78701E+01
 -1       859 3.72254E+01
 -1       860 3.96506E+01
 -1       861 3.82781E+01
 -1       862 4.07576E+01
 -1       863 3.93308E+01
 -1       864 4.00442E+01
 -1       865 3.93308E+01
 -1       866 4.07576E+01
 -1       867 3.19607E+01
 -1       868 3.21226E+01
 -1       869 2.94815E+01
 -1       870 2.90084E+01
 -1       871 2.99701E+01
 -1       872 2.99489E+01
 -1       873 3.04759E+01
 -1       874 2.99598E+01
 -1       875 3.01653E+01
 -1       876 3.10233E+01
 -1       877 1.62711E+01
 -1       878 1.65684E+01
 -1       879 1.44303E+01
 -1       880 1.53625E+01
 -1       881 1.08309E+01
 -1       882 1.16695E+01
 -1       883 1.03304E+01
 -1       884 1.01244E+01
 -1       885 2.31037E+01
 -1       886 3.44497E+01
 -1       887 3.48312E+01
 -1       888 3.53333E+01
 -1       889 3.40488E+01
 -1       890 3.34945E+01
 -1       891 3.23717E+01
 -1       892 3.18934E+01
 -1       893 2.85745E+01
 -1       894 3.28855E+01
 -1       895 2.57910E+01
 -1       896 2.52215E+01
 -1       897 2.85434E+01
 -1       898 3.49129E+01
 -1       899 3.08306E+01
 -1       900 3.49129E+01
 -1       901 3.26288E+01
 -1       902 3.00394E+01
 -1       903 2.95477E+01
 -1       904 3.03904E+01
 -1       905 3.18934E+01
 -1       906 3.45594E+01
 -1       907 3.40348E+01
 -1       908 3.32136E+01
 -1       909 3.32551E+01
 -1       910 3.40488E+01
 -1       911 2.99042E+01
 -1       912 2.93074E+01
 -1       913 2.32007E+01
 -1       914 1.60462E+01
 -1       915 1.67638E+01
 -1       916 1.33945E+01
 -1       917 3.01315E+01
 -1       918 3.00839E+01
 -1       919 3.03084E+01
 -1       920 1.63870E+01
 -1       921 1.32723E+01
 -1       922 1.24793E+01
 -1       923 3.56966E+01
 -1       924 3.19389E+01
 -1       925 3.49220E+01
 -1       926 3.38871E+01
 -1       927 3.02204E+01
 -1       928 3.41427E+01
 -1       929 3.25129E+01
 -1       930 3.88772E+01
 -1       931 2.70194E+01
 -1       932 1.94880E+01
 -1       933 1.70909E+01
 -1       934 2.63070E+01
 -1       935 2.63070E+01
 -1       936 3.48312E+01
 -1       937 3.00613E+01
 -1       938 3.41552E+01
 -1       939 3.52079E+01
 -1       940 3.99842E+01
 -1       941 3.26957E+01
 -1       942 3.41427E+01
 -1       943 3.39469E+01
 -1       944 2.32771E+01
 -1       945 2.89922E+01
 -1       946 3.41427E+01
 -1       947 3.85401E+01
 -1       948 3.85401E+01
 -1       949 3.99842E+01
 -1       950 3.92708E+01
 -1       951 2.38540E+01
 -1       952 2.69221E+01
 -1       953 3.19950E+01
 -1       954 3.09808E+01
 -1       955 3.00055E+01
 -1       956 2.99795E+01
 -1       957 2.99534E+01
 -1       958 3.00281E+01
 -1       959 3.01028E+01
 -1       960 3.00547E+01
 -1       961 3.14508E+01
 -1       962 3.06449E+01
 -1       963 2.47491E+01
 -1       964 1.86651E+01
 -1       965 1.62268E+01
 -1       966 1.65944E+01
 -1       967 1.58076E+01
 -1       968 1.49268E+01
 -1       969 1.14144E+01
 -1       970 1.07461E+01
 -1       971 2.40505E+01
 -1       972 3.68122E+01
 -1       973 3.48312E+01
 -1       974 3.39251E+01
 -1       975 3.47806E+01
 -1       976 3.35559E+01
 -1       977 3.52314E+01
 -1       978 3.26748E+01
 -1       979 2.99020E+01
 -1       980 3.20420E+01
 -1       981 3.17531E+01
 -1       982 2.96741E+01
 -1       983 2.97639E+01
 -1       984 3.45865E+01
 -1       985 3.45865E+01
 -1       986 3.26384E+01
 -1       987 3.05627E+01
 -1       988 3.04350E+01
 -1       989 2.75413E+01
 -1       990 2.69917E+01
 -1       991 2.41457E+01
 -1       992 3.38301E+01
 -1       993 2.77079E+01
 -1       994 3.08596E+01
 -1       995 2.89198E+01
 -1       996 3.31594E+01
 -1       997 1.38983E+01
 -1       998 1.08176E+01
 -1       999 3.23761E+01
 -1      1000 3.10250E+01
 -1      1001 1.28901E+01
 -1      1002 1.20008E+01
 -1      1003 3.07942E+01
 -1      1004 3.30581E+01
 -1      1005 3.01898E+01
 -1      1006 3.28250E+01
 -1      1007 2.99446E+01
 -1      1008 2.72945E+01
 -1      1009 2.82040E+01
 -1      1010 3.31504E+01
 -1      1011 2.98150E+01
 -1      1012 2.97956E+01
 -1      1013 2.21505E+01
 -1      1014 3.67199E+01
 -1      1015 3.32136E+01
 -1      1016 3.49941E+01
 -1      1017 3.49220E+01
 -1      1018 3.99842E+01
 -1      1019 3.30973E+01
 -1      1020 3.49220E+01
 -1      1021 3.99842E+01
 -1      1022 3.38777E+01
 -1      1023 3.85401E+01
 -1      1024 3.92536E+01
 -1      1025 3.15596E+01
 -1      1026 3.41427E+01
 -1      1027 2.50310E+01
 -1      1028 2.50310E+01
 -1      1029 3.19886E+01
 -1      1030 2.70751E+01
 -1      1031 3.86198E+01
 -1      1032 3.50956E+01
 -1      1033 3.39728E+01
 -1      1034 3.22974E+01
 -1      1035 3.66388E+01
 -1      1036 3.10129E+01
 -1      1037 3.46578E+01
 -1      1038 3.01573E+01
 -1      1039 3.42763E+01
 -1      1040 3.19111E+01
 -1      1041 3.18052E+01
 -1      1042 3.05948E+01
 -1      1043 3.13504E+01
 -1      1044 3.35767E+01
 -1      1045 2.95258E+01
 -1      1046 3.21500E+01
 -1      1047 2.78872E+01
 -1      1048 3.06775E+01
 -1      1049 3.29543E+01
 -1      1050 3.49024E+01
 -1      1051 3.02372E+01
 -1      1052 3.03649E+01
 -1      1053 3.06646E+01
 -1      1054 3.09098E+01
 -1      1055 2.71448E+01
 -1      1056 2.62353E+01
 -1      1057 3.12271E+01
 -1      1058 2.99875E+01
 -1      1059 3.42527E+01
 -1      1060 3.20986E+01
 -1      1061 3.42527E+01
 -1      1062 3.06636E+01
 -1      1063 2.40505E+01
 -1      1064 1.05154E+01
 -1      1065 2.99512E+01
 -1      1066 2.99772E+01
 -1      1067 3.00470E+01
 -1      1068 2.99723E+01
 -1      1069 3.05149E+01
 -1      1070 3.05631E+01
 -1      1071 2.88511E+01
 -1      1072 2.96569E+01
 -1      1073 1.35510E+01
 -1      1074 1.96349E+01
 -1      1075 1.70333E+01
 -1      1076 1.66657E+01
 -1      1077 1.58551E+01
 -1      1078 1.67359E+01
 -1      1079 1.11836E+01
 -1      1080 3.05017E+01
 -1      1081 1.49229E+01
 -1      1082 1.09777E+01
 -1      1083 3.09748E+01
 -1      1084 2.99606E+01
 -1      1085 1.18164E+01
 -1      1086 1.29995E+01
 -1      1087 3.01375E+01
 -1      1088 3.01569E+01
 -1      1089 1.39147E+01
 -1      1090 2.84221E+01
 -1      1091 2.84221E+01
 -1      1092 2.21639E+01
 -1      1093 2.38811E+01
 -1      1094 2.58505E+01
 -1      1095 3.34819E+01
 -1      1096 3.34299E+01
 -1      1097 3.35627E+01
 -1      1098 3.22614E+01
 -1      1099 3.20206E+01
 -1      1100 3.28929E+01
 -1      1101 3.09129E+01
 -1      1102 3.07960E+01
 -1      1103 3.19258E+01
 -1      1104 3.44992E+01
 -1      1105 3.52987E+01
 -1      1106 2.84893E+01
 -1      1107 3.58443E+01
 -1      1108 3.58443E+01
 -1      1109 3.42901E+01
 -1      1110 3.28809E+01
 -1      1111 3.21755E+01
 -1      1112 2.84084E+01
 -1      1113 3.43021E+01
 -1      1114 3.10609E+01
 -1      1115 2.84893E+01
 -1      1116 3.42213E+01
 -1      1117 3.36998E+01
 -1      1118 3.10473E+01
 -1      1119 3.09862E+01
 -1      1120 3.36998E+01
 -1      1121 3.44992E+01
 -1      1122 3.29532E+01
 -1      1123 3.56765E+01
 -1      1124 3.72862E+01
 -1      1125 3.73865E+01
 -1      1126 3.71859E+01
 -1      1127 3.71859E+01
 -1      1128 3.72862E+01
 -1      1129 3.21717E+01
 -1      1130 3.46788E+01
 -1      1131 3.11509E+01
 -1      1132 2.95874E+01
 -1      1133 3.07903E+01
 -1      1134 2.84221E+01
 -1      1135 3.38556E+01
 -1      1136 3.55656E+01
 -1      1137 3.52128E+01
 -1      1138 3.51125E+01
 -1      1139 3.52294E+01
 -1      1140 3.07903E+01
 -1      1141 2.79002E+01
 -1      1142 3.56765E+01
 -1      1143 2.90916E+01
 -1      1144 3.10609E+01
 -1      1145 3.56765E+01
 -1      1146 3.10609E+01
 -1      1147 3.25084E+01
 -1      1148 3.41386E+01
 -1      1149 3.03515E+01
 -1      1150 3.52294E+01
 -1      1151 3.51587E+01
 -1      1152 2.84084E+01
 -1      1153 3.73865E+01
 -1      1154 2.84084E+01
 -1      1155 3.73865E+01
 -1      1156 3.73865E+01
 -1      1157 2.75043E+01
 -1      1158 2.74906E+01
 -1      1159 3.57320E+01
 -1      1160 3.72862E+01
 -1      1161 3.57320E+01
 -1      1162 3.71859E+01
 -1      1163 3.50266E+01
 -1      1164 3.57320E+01
 -1      1165 3.14861E+01
 -1      1166 3.49380E+01
 -1      1167 3.49380E+01
 -1      1168 3.52987E+01
 -1      1169 3.14070E+01
 -1      1170 3.35663E+01
 -1      1171 3.52987E+01
 -1      1172 3.09862E+01
 -1      1173 3.72862E+01
 -1      1174 2.63194E+01
 -1      1175 2.20069E+01
 -1      1176 3.03623E+01
 -1      1177 3.25195E+01
 -1      1178 2.94227E+01
 -1      1179 3.71859E+01
 -1      1180 3.52987E+01
 -1      1181 3.10592E+01
 -1      1182 3.05819E+01
 -1      1183 2.47559E+01
 -1      1184 2.94876E+01
 -1      1185 2.99606E+01
 -1      1186 2.99606E+01
 -1      1187 3.01375E+01
 -1      1188 2.99512E+01
 -1      1189 2.99723E+01
 -1      1190 3.00470E+01
 -1      1191 3.00470E+01
 -1      1192 3.05631E+01
 -1      1193 3.25819E+01
 -1      1194 3.14575E+01
 -1      1195 3.15383E+01
 -1      1196 3.38979E+01
 -1      1197 3.41406E+01
 -1      1198 3.38979E+01
 -1      1199 3.10072E+01
 -1      1200 2.99772E+01
 -1      1201 3.42213E+01
 -1      1202 3.01569E+01
 -1      1203 2.94486E+01
 -1      1204 3.37000E+01
 -1      1205 2.55808E+01
 -1      1206 3.32840E+01
 -1      1207 3.25084E+01
 -1      1208 3.31512E+01
 -1      1209 3.26905E+01
 -1      1210 3.25084E+01
 -1      1211 3.13171E+01
 -1      1212 3.27984E+01
 -1      1213 3.31512E+01
 -1      1214 3.30391E+01
 -1      1215 3.27984E+01
 -1      1216 3.31560E+01
 -1      1217 3.30391E+01
 -1      1218 3.32729E+01
 -1      1219 3.31560E+01
 -1      1220 3.03515E+01
 -1      1221 3.03514E+01
 -1      1222 3.25084E+01
 -1      1223 3.25576E+01
 -1      1224 3.11509E+01
 -1      1225 3.14833E+01
 -1      1226 2.73355E+01
 -1      1227 3.27223E+01
 -1      1228 3.32729E+01
 -1      1229 2.99198E+01
 -1      1230 3.04704E+01
 -1      1231 3.30391E+01
 -1      1232 3.32729E+01
 -1      1233 3.25084E+01
 -1      1234 2.41855E+01
 -1      1235 9.32669E+00
 -1      1236 1.06767E+01
 -1      1237 1.57905E+01
 -1      1238 1.54932E+01
 -1      1239 1.58551E+01
 -1      1240 1.49229E+01
 -1      1241 1.18748E+01
 -1      1242 1.10361E+01
 -1      1243 1.00561E+01
 -1      1244 2.19895E+01
 -1      1245 1.29995E+01
 -1      1246 1.39147E+01
 -1      1247 5.99318E+00
 -1      1248 1.03774E+01
 -1      1249 2.52362E+01
 -1      1250 1.91077E+01
 -1      1251 1.67359E+01
 -1      1252 9.36267E+00
 -1      1253 1.91077E+01
 -1      1254 3.21956E+01
 -1      1255 3.21956E+01
 -1      1256 3.21956E+01
 -1      1257 3.00101E+01
 -1      1258 3.14496E+01
 -1      1259 2.78074E+01
 -1      1260 2.71448E+01
 -1      1261 2.82749E+01
 -1      1262 3.03959E+01
 -1      1263 3.06646E+01
 -1      1264 3.05841E+01
 -1      1265 3.07798E+01
 -1      1266 3.17929E+01
 -1      1267 2.79934E+01
 -1      1268 2.76895E+01
 -1      1269 2.76697E+01
 -1      1270 2.91658E+01
 -1      1271 2.86889E+01
 -1      1272 2.78648E+01
 -1      1273 2.64307E+01
 -1      1274 3.09646E+01
 -1      1275 3.10850E+01
 -1      1276 3.25139E+01
 -1      1277 3.75040E+01
 -1      1278 3.66618E+01
 -1      1279 2.99724E+01
 -1      1280 3.33046E+01
 -1      1281 3.59312E+01
 -1      1282 3.33328E+01
 -1      1283 3.21382E+01
 -1      1284 3.02146E+01
 -1      1285 2.89120E+01
 -1      1286 2.84808E+01
 -1      1287 3.49079E+01
 -1      1288 3.58233E+01
 -1      1289 3.13018E+01
 -1      1290 3.65918E+01
 -1      1291 2.75679E+01
 -1      1292 3.06148E+01
 -1      1293 3.19278E+01
 -1      1294 3.37647E+01
 -1      1295 3.07218E+01
 -1      1296 2.87332E+01
 -1      1297 3.28617E+01
 -1      1298 3.23372E+01
 -1      1299 2.91855E+01
 -1      1300 3.78974E+01
 -1      1301 3.30581E+01
 -1      1302 2.87471E+01
 -1      1303 2.87471E+01
 -1      1304 2.83364E+01
 -1      1305 3.85983E+01
 -1      1306 3.23761E+01
 -1      1307 3.66638E+01
 -1      1308 3.96780E+01
 -1      1309 3.95759E+01
 -1      1310 3.77165E+01
 -1      1311 3.88625E+01
 -1      1312 3.83942E+01
 -1      1313 3.15788E+01
 -1      1314 2.86265E+01
 -1      1315 2.90084E+01
 -1      1316 2.94815E+01
 -1      1317 3.01315E+01
 -1      1318 2.99042E+01
 -1      1319 2.99489E+01
 -1      1320 2.99701E+01
 -1      1321 3.01017E+01
 -1      1322 3.06177E+01
 -1      1323 3.10233E+01
 -1      1324 1.71046E+01
 -1      1325 1.71046E+01
 -1      1326 1.68072E+01
 -1      1327 1.65099E+01
 -1      1328 1.55777E+01
 -1      1329 1.46455E+01
 -1      1330 1.37303E+01
 -1      1331 1.28151E+01
 -1      1332 1.19764E+01
 -1      1333 1.11378E+01
 -1      1334 2.30712E+01
 -1      1335 2.21138E+01
 -1      1336 3.21867E+01
 -1      1337 3.24658E+01
 -1      1338 3.52182E+01
 -1      1339 3.52182E+01
 -1      1340 3.26288E+01
 -1      1341 3.41427E+01
 -1      1342 3.02511E+01
 -1      1343 2.66089E+01
 -1      1344 3.08306E+01
 -1      1345 3.68122E+01
 -1      1346 3.56177E+01
 -1      1347 3.38513E+01
 -1      1348 2.78286E+01
 -1      1349 2.81336E+01
 -1      1350 3.45607E+01
 -1      1351 3.64561E+01
 -1      1352 3.17778E+01
 -1      1353 3.14153E+01
 -1      1354 3.01766E+01
 -1      1355 2.98728E+01
 -1      1356 2.93482E+01
 -1      1357 3.23894E+01
 -1      1358 2.80784E+01
 -1      1359 3.14856E+01
 -1      1360 2.47817E+01
 -1      1361 3.03084E+01
 -1      1362 3.00839E+01
 -1      1363 3.08527E+01
 -1      1364 2.87745E+01
 -1      1365 1.44045E+01
 -1      1366 2.36677E+01
 -1      1367 3.25487E+01
 -1      1368 3.08442E+01
 -1      1369 3.32136E+01
 -1      1370 3.18964E+01
 -1      1371 3.04433E+01
 -1      1372 3.11159E+01
 -1      1373 3.08472E+01
 -1      1374 3.19525E+01
 -1      1375 3.40348E+01
 -1      1376 3.41552E+01
 -1      1377 3.19607E+01
 -1      1378 3.01017E+01
 -1      1379 3.01653E+01
 -1      1380 2.43115E+01
 -1      1381 1.68600E+01
 -1      1382 1.57545E+01
 -1      1383 2.62227E+01
 -1      1384 3.25785E+01
 -1      1385 3.39144E+01
 -1      1386 3.52079E+01
 -1      1387 2.90409E+01
 -1      1388 3.01653E+01
 -1      1389 3.89045E+01
 -1      1390 3.25129E+01
 -1      1391 3.39469E+01
 -1      1392 2.90409E+01
 -1      1393 3.24195E+01
 -1      1394 3.36411E+01
 -1      1395 3.85401E+01
 -1      1396 1.54137E+01
 -1      1397 1.54137E+01
 -1      1398 2.81380E+01
 -1      1399 2.81380E+01
 -1      1400 1.67638E+01
 -1      1401 1.88748E+01
 -1      1402 2.60598E+01
 -1      1403 3.80719E+01
 -1      1404 3.88025E+01
 -1      1405 2.40450E+01
 -1      1406 2.13303E+01
 -1      1407 1.67638E+01
 -1      1408 3.19950E+01
 -1      1409 3.06636E+01
 -1      1410 2.99667E+01
 -1      1411 3.09808E+01
 -1      1412 3.00055E+01
 -1      1413 2.98150E+01
 -1      1414 2.99534E+01
 -1      1415 2.99795E+01
 -1      1416 3.01028E+01
 -1      1417 3.00281E+01
 -1      1418 1.69620E+01
 -1      1419 1.69620E+01
 -1      1420 1.31840E+01
 -1      1421 1.41921E+01
 -1      1422 1.08058E+01
 -1      1423 1.20592E+01
 -1      1424 8.99229E+00
 -1      1425 9.82571E+00
 -1      1426 3.26974E+01
 -1      1427 2.19151E+01
 -1      1428 2.99328E+01
 -1      1429 2.74963E+01
 -1      1430 2.99317E+01
 -1      1431 3.18798E+01
 -1      1432 2.98040E+01
 -1      1433 2.99317E+01
 -1      1434 2.88666E+01
 -1      1435 2.88666E+01
 -1      1436 2.84368E+01
 -1      1437 2.82040E+01
 -1      1438 3.06636E+01
 -1      1439 3.49535E+01
 -1      1440 3.08542E+01
 -1      1441 3.12020E+01
 -1      1442 3.24246E+01
 -1      1443 3.10164E+01
 -1      1444 3.52314E+01
 -1      1445 3.41086E+01
 -1      1446 3.16901E+01
 -1      1447 3.44629E+01
 -1      1448 3.38301E+01
 -1      1449 3.17947E+01
 -1      1450 2.75071E+01
 -1      1451 2.85335E+01
 -1      1452 2.85335E+01
 -1      1453 2.70994E+01
 -1      1454 3.31504E+01
 -1      1455 3.32440E+01
 -1      1456 3.31256E+01
 -1      1457 3.33740E+01
 -1      1458 3.35936E+01
 -1      1459 2.75269E+01
 -1      1460 3.06785E+01
 -1      1461 1.52003E+01
 -1      1462 1.60811E+01
 -1      1463 1.13467E+01
 -1      1464 1.47162E+01
 -1      1465 1.50749E+01
 -1      1466 1.06907E+01
 -1      1467 1.42999E+01
 -1      1468 2.58735E+01
 -1      1469 1.88046E+01
 -1      1470 1.73736E+01
 -1      1471 3.10250E+01
 -1      1472 3.10250E+01
 -1      1473 2.83419E+01
 -1      1474 3.12326E+01
 -1      1475 2.86024E+01
 -1      1476 2.89883E+01
 -1      1477 2.97956E+01
 -1      1478 2.99667E+01
 -1      1479 1.57192E+01
 -1      1480 1.53029E+01
 -1      1481 1.36439E+01
 -1      1482 2.90626E+01
 -1      1483 3.01898E+01
 -1      1484 3.49220E+01
 -1      1485 3.23585E+01
 -1      1486 3.71978E+01
 -1      1487 1.73736E+01
 -1      1488 1.90850E+01
 -1      1489 2.27307E+01
 -1      1490 2.92488E+01
 -1      1491 3.11998E+01
 -1      1492 3.63556E+01
 -1      1493 3.74352E+01
 -1      1494 3.05301E+01
 -1      1495 2.47491E+01
 -1      1496 3.04436E+01
 -1      1497 2.89378E+01
 -1      1498 1.59590E+01
 -1      1499 2.94564E+01
 -1      1500 3.30850E+01
 -1      1501 3.48087E+01
 -1      1502 3.47396E+01
 -1      1503 3.36270E+01
 -1      1504 2.78134E+01
 -1      1505 2.41677E+01
 -1      1506 2.68606E+01
 -1      1507 2.77426E+01
 -1      1508 2.65338E+01
 -1      1509 2.95369E+01
 -1      1510 2.65338E+01
 -1      1511 2.68606E+01
 -1      1512 2.55407E+01
 -1      1513 3.45974E+01
 -1      1514 3.47331E+01
 -1      1515 3.68535E+01
 -1      1516 3.50871E+01
 -1      1517 3.48387E+01
 -1      1518 3.39728E+01
 -1      1519 3.50956E+01
 -1      1520 3.20774E+01
 -1      1521 3.44909E+01
 -1      1522 3.06692E+01
 -1      1523 3.38948E+01
 -1      1524 3.03642E+01
 -1      1525 3.21357E+01
 -1      1526 3.35767E+01
 -1      1527 3.37357E+01
 -1      1528 3.21500E+01
 -1      1529 2.93323E+01
 -1      1530 3.21226E+01
 -1      1531 3.49024E+01
 -1      1532 3.29543E+01
 -1      1533 3.03649E+01
 -1      1534 3.02372E+01
 -1      1535 3.06411E+01
 -1      1536 2.95139E+01
 -1      1537 3.38929E+01
 -1      1538 3.15596E+01
 -1      1539 2.76680E+01
 -1      1540 2.76680E+01
 -1      1541 3.18897E+01
 -1      1542 3.09108E+01
 -1      1543 3.35871E+01
 -1      1544 2.87885E+01
 -1      1545 1.98990E+01
 -1      1546 3.01198E+01
 -1      1547 3.05017E+01
 -1      1548 2.94876E+01
 -1      1549 2.97419E+01
 -1      1550 2.99325E+01
 -1      1551 2.99772E+01
 -1      1552 2.99512E+01
 -1      1553 3.00828E+01
 -1      1554 3.01575E+01
 -1      1555 3.05631E+01
 -1      1556 2.40450E+01
 -1      1557 1.81911E+01
 -1      1558 1.64797E+01
 -1      1559 1.53742E+01
 -1      1560 1.70333E+01
 -1      1561 1.70333E+01
 -1      1562 1.70333E+01
 -1      1563 1.67359E+01
 -1      1564 1.58551E+01
 -1      1565 1.49229E+01
 -1      1566 1.39147E+01
 -1      1567 1.29995E+01
 -1      1568 1.17461E+01
 -1      1569 1.09075E+01
 -1      1570 1.00740E+01
 -1      1571 9.11660E+00
 -1      1572 3.01375E+01
 -1      1573 2.99664E+01
 -1      1574 3.00055E+01
 -1      1575 3.00055E+01
 -1      1576 2.98150E+01
 -1      1577 2.99512E+01
 -1      1578 2.99489E+01
 -1      1579 2.99701E+01
 -1      1580 3.05631E+01
 -1      1581 3.10233E+01
 -1      1582 3.06177E+01
 -1      1583 2.99534E+01
 -1      1584 2.99512E+01
 -1      1585 2.99795E+01
 -1      1586 3.88625E+01
 -1      1587 3.93308E+01
 -1      1588 3.88625E+01
 -1      1589 2.99723E+01
 -1      1590 3.01017E+01
 -1      1591 2.99701E+01
 -1      1592 9.89597E+00
 -1      1593 1.04927E+01
 -1      1594 9.04269E+00
 -1      1595 3.49079E+01
 -1      1596 3.53333E+01
 -1      1597 3.65918E+01
 -1      1598 3.08596E+01
 -1      1599 2.77079E+01
 -1      1600 2.77079E+01
 -1      1601 3.18964E+01
 -1      1602 2.85434E+01
 -1      1603 3.18964E+01
 -1      1604 2.97134E+01
 -1      1605 2.73273E+01
 -1      1606 3.21500E+01
 -1      1607 2.97639E+01
 -1      1608 3.85401E+01
 -1      1609 3.44173E+01
 -1      1610 3.77495E+01
 -1      1611 1.13441E+01
 -1      1612 1.05107E+01
 -1      1613 1.00791E+01
 -1      1614 9.24568E+00
 -1      1615 2.54289E+01
 -1      1616 2.69221E+01
 -1      1617 2.90084E+01
 -1      1618 3.05017E+01
 -1      1619 2.97134E+01
 -1      1620 1.54137E+01
 -1      1621 1.93101E+01
 -1      1622 2.25683E+01
 -1      1623 3.19604E+01
 -1      1624 3.07218E+01
 -1      1625 2.95501E+01
 -1      1626 3.04759E+01
 -1      1627 3.00156E+01
 -1      1628 2.99598E+01
 -1      1629 1.52003E+01
 -1      1630 1.60811E+01
 -1      1631 1.52003E+01
 -1      1632 3.93308E+01
 -1      1633 3.77165E+01
 -1      1634 3.93308E+01
 -1      1635 3.77165E+01
 -1      1636 3.71965E+01
 -1      1637 3.32136E+01
 -1      1638 3.23894E+01
 -1      1639 2.84064E+01
 -1      1640 3.10233E+01
 -1      1641 3.10233E+01
 -1      1642 3.49024E+01
 -1      1643 3.26288E+01
 -1      1644 1.55777E+01
 -1      1645 1.49229E+01
 -1      1646 1.58551E+01
 -1      1647 2.89269E+01
 -1      1648 2.92185E+01
 -1      1649 2.75955E+01
 -1      1650 2.78872E+01
 -1      1651 3.45865E+01
 -1      1652 3.05631E+01
 -1      1653 2.75269E+01
 -1      1654 2.75269E+01
 -1      1655 2.75071E+01
 -1      1656 3.52182E+01
 -1      1657 3.28617E+01
 -1      1658 3.18934E+01
 -1      1659 3.38301E+01
 -1      1660 3.28617E+01
 -1      1661 3.01028E+01
 -1      1662 1.53516E+01
 -1      1663 1.65944E+01
 -1      1664 1.63684E+01
 -1      1665 3.00703E+01
 -1      1666 3.15596E+01
 -1      1667 3.38929E+01
 -1      1668 3.15596E+01
 -1      1669 3.50956E+01
 -1      1670 3.39728E+01
 -1      1671 3.50956E+01
 -1      1672 3.41086E+01
 -1      1673 3.22974E+01
 -1      1674 3.24658E+01
 -1      1675 3.03611E+01
 -1      1676 3.41427E+01
 -1      1677 3.42527E+01
 -1      1678 3.06785E+01
 -1      1679 3.11450E+01
 -1      1680 3.38301E+01
 -1      1681 3.40327E+01
 -1      1682 3.02511E+01
 -1      1683 2.97682E+01
 -1      1684 2.84368E+01
 -1      1685 2.75413E+01
 -1      1686 3.25139E+01
 -1      1687 3.64969E+01
 -1      1688 2.86889E+01
 -1      1689 3.26719E+01
 -1      1690 2.98728E+01
 -1      1691 3.01766E+01
 -1      1692 3.18934E+01
 -1      1693 3.38948E+01
 -1      1694 3.25785E+01
 -1      1695 3.19111E+01
 -1      1696 2.94876E+01
 -1      1697 3.19950E+01
 -1      1698 3.09808E+01
 -1      1699 3.42527E+01
 -1      1700 3.41427E+01
 -1      1701 3.39469E+01
 -1      1702 3.38369E+01
 -1      1703 2.75955E+01
 -1      1704 2.93666E+01
 -1      1705 3.13688E+01
 -1      1706 3.65918E+01
 -1      1707 3.78165E+01
 -1      1708 3.78165E+01
 -1      1709 1.58076E+01
 -1      1710 1.58076E+01
 -1      1711 1.49268E+01
 -1      1712 2.99489E+01
 -1      1713 2.92006E+01
 -1      1714 2.94083E+01
 -1      1715 3.06449E+01
 -1      1716 3.08526E+01
 -1      1717 2.99667E+01
 -1      1718 3.09808E+01
 -1      1719 3.19950E+01
 -1      1720 2.99701E+01
 -1      1721 2.99912E+01
 -1      1722 2.99912E+01
 -1      1723 1.07474E+01
 -1      1724 3.49024E+01
 -1      1725 3.03084E+01
 -1      1726 3.01315E+01
 -1      1727 3.03084E+01
 -1      1728 2.70386E+01
 -1      1729 2.25683E+01
 -1      1730 2.33259E+01
 -1      1731 1.88556E+01
 -1      1732 1.62711E+01
 -1      1733 1.65684E+01
 -1      1734 1.52543E+01
 -1      1735 2.99664E+01
 -1      1736 2.97956E+01
 -1      1737 3.01375E+01
 -1      1738 3.00281E+01
 -1      1739 2.99723E+01
 -1      1740 2.99723E+01
 -1      1741 1.71046E+01
 -1      1742 1.66657E+01
 -1      1743 1.70333E+01
 -1      1744 1.65944E+01
 -1      1745 3.39469E+01
 -1      1746 3.53671E+01
 -1      1747 2.62227E+01
 -1      1748 2.92696E+01
 -1      1749 2.75679E+01
 -1      1750 3.06148E+01
 -1      1751 2.99328E+01
 -1      1752 2.70994E+01
 -1      1753 2.69268E+01
 -1      1754 3.40488E+01
 -1      1755 3.07929E+01
 -1      1756 3.45607E+01
 -1      1757 3.48725E+01
 -1      1758 3.44909E+01
 -1      1759 3.46240E+01
 -1      1760 3.42425E+01
 -1      1761 3.22588E+01
 -1      1762 3.10850E+01
 -1      1763 3.52079E+01
 -1      1764 3.41552E+01
 -1      1765 3.82781E+01
 -1      1766 2.84221E+01
 -1      1767 2.99534E+01
 -1      1768 3.00281E+01
 -1      1769 3.01028E+01
 -1      1770 3.48725E+01
 -1      1771 2.13111E+01
 -1      1772 2.60406E+01
 -1      1773 1.26398E+01
 -1      1774 1.50953E+01
 -1      1775 1.39898E+01
 -1      1776 1.22595E+01
 -1      1777 3.26288E+01
 -1      1778 3.26288E+01
 -1      1779 3.00394E+01
 -1      1780 3.00394E+01
 -1      1781 3.38301E+01
 -1      1782 3.32551E+01
 -1      1783 3.19525E+01
 -1      1784 2.35366E+01
 -1      1785 3.00547E+01
 -1      1786 3.05149E+01
 -1      1787 4.07576E+01
 -1      1788 3.95759E+01
 -1      1789 4.07576E+01
 -1      1790 3.95759E+01
 -1      1791 2.99325E+01
 -1      1792 3.28855E+01
 -1      1793 3.47331E+01
 -1      1794 3.34945E+01
 -1      1795 4.07576E+01
 -1      1796 3.99842E+01
 -1      1797 2.99534E+01
 -1      1798 2.96244E+01
 -1      1799 2.98150E+01
 -1      1800 3.23229E+01
 -1      1801 3.50956E+01
 -1      1802 2.84893E+01
 -1      1803 3.21382E+01
 -1      1804 3.16609E+01
 -1      1805 2.97373E+01
 -1      1806 3.01766E+01
 -1      1807 3.19135E+01
 -1      1808 3.28617E+01
 -1      1809 3.45986E+01
 -1      1810 3.26384E+01
 -1      1811 3.18798E+01
 -1      1812 3.45865E+01
 -1      1813 3.19950E+01
 -1      1814 3.19950E+01
 -1      1815 2.89269E+01
 -1      1816 3.17778E+01
 -1      1817 3.50956E+01
 -1      1818 2.60959E+01
 -1      1819 2.72945E+01
 -1      1820 2.72945E+01
 -1      1821 3.96780E+01
 -1      1822 3.96780E+01
 -1      1823 2.85745E+01
 -1      1824 2.80784E+01
 -1      1825 2.63262E+01
 -1      1826 2.90409E+01
 -1      1827 2.88666E+01
 -1      1828 2.82040E+01
 -1      1829 2.88666E+01
 -1      1830 3.95759E+01
 -1      1831 3.84801E+01
 -1      1832 3.85401E+01
 -1      1833 2.82040E+01
 -1      1834 3.26288E+01
 -1      1835 2.75413E+01
 -1      1836 2.99328E+01
 -1      1837 1.50369E+01
 -1      1838 3.31382E+01
 -1      1839 3.11159E+01
 -1      1840 3.25129E+01
 -1      1841 3.13847E+01
 -1      1842 2.99546E+01
 -1      1843 3.01315E+01
 -1      1844 2.94876E+01
 -1      1845 3.01375E+01
 -1      1846 2.94815E+01
 -1      1847 1.01244E+01
 -1      1848 1.01244E+01
 -1      1849 1.11378E+01
 -1      1850 1.11378E+01
 -1      1851 3.36367E+01
 -1      1852 3.38101E+01
 -1      1853 3.01028E+01
 -1      1854 3.01028E+01
 -1      1855 1.37303E+01
 -1      1856 1.28151E+01
 -1      1857 1.29995E+01
 -1      1858 3.26155E+01
 -1      1859 3.13129E+01
 -1      1860 3.36998E+01
 -1      1861 3.36998E+01
 -1      1862 3.58443E+01
 -1      1863 3.58443E+01
 -1      1864 3.73865E+01
 -1      1865 2.91855E+01
 -1      1866 2.91658E+01
 -1      1867 3.10609E+01
 -1      1868 3.52182E+01
 -1      1869 3.24658E+01
 -1      1870 3.34945E+01
 -1      1871 2.90916E+01
 -1      1872 2.94564E+01
 -1      1873 3.10850E+01
 -1      1874 2.97548E+01
 -1      1875 2.92862E+01
 -1      1876 2.79560E+01
 -1      1877 3.19607E+01
 -1      1878 2.31870E+01
 -1      1879 3.01653E+01
 -1      1880 2.43115E+01
 -1      1881 3.01575E+01
 -1      1882 3.09808E+01
 -1      1883 2.99667E+01
 -1      1884 2.99667E+01
 -1      1885 2.45301E+01
 -1      1886 9.96076E+00
 -1      1887 9.72535E+00
 -1      1888 2.38151E+01
 -1      1889 3.66638E+01
 -1      1890 3.23761E+01
 -1      1891 3.72254E+01
 -1      1892 3.18934E+01
 -1      1893 3.10609E+01
 -1      1894 3.62672E+01
 -1      1895 3.06148E+01
 -1      1896 3.41332E+01
 -1      1897 3.39251E+01
 -1      1898 2.82749E+01
 -1      1899 1.65099E+01
 -1      1900 1.68072E+01
 -1      1901 1.67359E+01
 -1      1902 2.89198E+01
 -1      1903 2.89198E+01
 -1      1904 2.89198E+01
 -1      1905 2.89198E+01
 -1      1906 1.53625E+01
 -1      1907 1.47077E+01
 -1      1908 1.44303E+01
 -1      1909 3.31256E+01
 -1      1910 3.40327E+01
 -1      1911 2.99772E+01
 -1      1912 2.99489E+01
 -1      1913 3.38369E+01
 -1      1914 3.40327E+01
 -1      1915 3.07798E+01
 -1      1916 2.76217E+01
 -1      1917 3.13895E+01
 -1      1918 3.78165E+01
 -1      1919 3.38301E+01
 -1      1920 3.20420E+01
 -1      1921 3.16901E+01
 -1      1922 3.04433E+01
 -1      1923 3.04433E+01
 -1      1924 3.11159E+01
 -1      1925 1.70333E+01
 -1      1926 1.69620E+01
 -1      1927 1.69620E+01
 -1      1928 3.49123E+01
 -1      1929 3.50459E+01
 -1      1930 3.33328E+01
 -1      1931 2.99042E+01
 -1      1932 1.28151E+01
 -1      1933 3.26384E+01
 -1      1934 2.85335E+01
 -1      1935 2.97826E+01
 -1      1936 3.04350E+01
 -1      1937 3.05627E+01
 -1      1938 3.04350E+01
 -1      1939 3.52314E+01
 -1      1940 3.30581E+01
 -1      1941 2.87885E+01
 -1      1942 2.86265E+01
 -1      1943 3.15788E+01
 -1      1944 3.21500E+01
 -1      1945 2.72375E+01
 -1      1946 2.47491E+01
 -1      1947 2.27307E+01
 -1      1948 2.83948E+01
 -1      1949 2.93074E+01
 -1      1950 2.63070E+01
 -1      1951 3.41343E+01
 -1      1952 3.41343E+01
 -1      1953 3.40535E+01
 -1      1954 3.40535E+01
 -1      1955 3.42527E+01
 -1      1956 3.16901E+01
 -1      1957 3.31594E+01
 -1      1958 3.58443E+01
 -1      1959 3.10233E+01
 -1      1960 1.07292E+01
 -1      1961 1.08309E+01
 -1      1962 1.08761E+01
 -1      1963 1.09777E+01
 -1      1964 3.09646E+01
 -1      1965 3.01653E+01
 -1      1966 3.12623E+01
 -1      1967 3.24195E+01
 -1      1968 3.25785E+01
 -1      1969 2.70517E+01
 -1      1970 2.93323E+01
 -1      1971 2.99664E+01
 -1      1972 3.03084E+01
 -1      1973 3.00839E+01
 -1      1974 3.21226E+01
 -1      1975 2.84368E+01
 -1      1976 3.49129E+01
 -1      1977 3.12271E+01
 -1      1978 3.35767E+01
 -1      1979 3.35767E+01
 -1      1980 3.35767E+01
 -1      1981 3.35767E+01
 -1      1982 2.86889E+01
 -1      1983 2.92306E+01
 -1      1984 2.92306E+01
 -1      1985 3.28266E+01
 -1      1986 2.98040E+01
 -1      1987 2.96062E+01
 -1      1988 3.02372E+01
 -1      1989 3.09098E+01
 -1      1990 3.74352E+01
 -1      1991 3.66618E+01
 -1      1992 1.16695E+01
 -1      1993 1.19764E+01
 -1      1994 1.44204E+01
 -1      1995 1.88046E+01
 -1      1996 1.73736E+01
 -1      1997 2.93323E+01
 -1      1998 3.96780E+01
 -1      1999 3.78974E+01
 -1      2000 3.85710E+01
 -1      2001 1.09777E+01
 -1      2002 1.18164E+01
 -1      2003 3.05017E+01
 -1      2004 3.40348E+01
 -1      2005 3.40348E+01
 -1      2006 3.72254E+01
 -1      2007 3.21226E+01
 -1      2008 1.50369E+01
 -1      2009 3.35178E+01
 -1      2010 3.25819E+01
 -1      2011 3.17240E+01
 -1      2012 3.41343E+01
 -1      2013 2.10193E+01
 -1      2014 3.33328E+01
 -1      2015 3.50046E+01
 -1      2016 3.50046E+01
 -1      2017 3.17531E+01
 -1      2018 3.03904E+01
 -1      2019 3.08306E+01
 -1      2020 2.78074E+01
 -1      2021 2.94486E+01
 -1      2022 2.89883E+01
 -1      2023 3.03844E+01
 -1      2024 1.69620E+01
 -1      2025 1.46455E+01
 -1      2026 1.33945E+01
 -1      2027 1.46455E+01
 -1      2028 1.33945E+01
 -1      2029 2.99042E+01
 -1      2030 2.98595E+01
 -1      2031 2.99489E+01
 -1      2032 3.42207E+01
 -1      2033 3.38871E+01
 -1      2034 3.89045E+01
 -1      2035 3.85710E+01
 -1      2036 3.00839E+01
 -1      2037 3.01198E+01
 -1      2038 3.36998E+01
 -1      2039 3.03084E+01
 -1      2040 3.39728E+01
 -1      2041 3.11191E+01
 -1      2042 2.68407E+01
 -1      2043 1.24793E+01
 -1      2044 1.26638E+01
 -1      2045 2.90409E+01
 -1      2046 3.45865E+01
 -1      2047 3.18047E+01
 -1      2048 1.20008E+01
 -1      2049 3.49079E+01
 -1      2050 1.39147E+01
 -1      2051 1.31840E+01
 -1      2052 1.07474E+01
 -1      2053 1.20008E+01
 -1      2054 2.38552E+01
 -1      2055 2.98040E+01
 -1      2056 3.21371E+01
 -1      2057 2.91146E+01
 -1      2058 1.55885E+01
 -1      2059 1.26761E+01
 -1      2060 3.32752E+01
 -1      2061 2.85745E+01
 -1      2062 2.90084E+01
 -1      2063 2.94815E+01
 -1      2064 3.08411E+01
 -1      2065 2.93482E+01
 -1      2066 3.36411E+01
 -1      2067 3.25129E+01
 -1      2068 3.49129E+01
 -1      2069 1.49353E+01
 -1      2070 1.55914E+01
 -1      2071 1.49353E+01
 -1      2072 3.14496E+01
 -1      2073 3.62672E+01
 -1      2074 3.37647E+01
 -1      2075 3.44302E+01
 -1      2076 1.03359E+01
 -1      2077 1.67638E+01
 -1      2078 3.18315E+01
 -1      2079 3.31504E+01
 -1      2080 3.13504E+01
 -1      2081 3.41386E+01
 -1      2082 3.82774E+01
 -1      2083 2.99534E+01
 -1      2084 1.63870E+01
 -1      2085 1.60462E+01
 -1      2086 3.74352E+01
 -1      2087 3.36165E+01
 -1      2088 3.01431E+01
 -1      2089 2.39964E+01
 -1      2090 3.08356E+01
 -1      2091 3.21271E+01
 -1      2092 3.26044E+01
 -1      2093 3.23761E+01
 -1      2094 1.71046E+01
 -1      2095 1.71046E+01
 -1      2096 1.65684E+01
 -1      2097 1.16695E+01
 -1      2098 2.73793E+01
 -1      2099 3.21494E+01
 -1      2100 2.50806E+01
 -1      2101 3.39469E+01
 -1      2102 1.65099E+01
 -1      2103 3.04436E+01
 -1      2104 3.15248E+01
 -1      2105 3.20774E+01
 -1      2106 3.28501E+01
 -1      2107 1.53625E+01
 -1      2108 3.75040E+01
 -1      2109 3.01573E+01
 -1      2110 3.04879E+01
 -1      2111 3.37829E+01
 -1      2112 3.08899E+01
 -1      2113 1.64230E+01
 -1      2114 2.99517E+01
 -1      2115 2.99772E+01
 -1      2116 3.00055E+01
 -1      2117 2.99795E+01
 -1      2118 3.08891E+01
 -1      2119 3.64561E+01
 -1      2120 3.00055E+01
 -1      2121 3.27779E+01
 -1      2122 2.99325E+01
 -1      2123 3.21357E+01
 -1      2124 3.30581E+01
 -1      2125 3.71965E+01
 -1      2126 3.88625E+01
 -1      2127 2.88666E+01
 -1      2128 3.38948E+01
 -1      2129 3.06904E+01
 -1      2130 3.05627E+01
 -1      2131 1.77899E+01
 -1      2132 1.80296E+01
 -1      2133 3.48087E+01
 -1      2134 3.33046E+01
 -1      2135 3.80719E+01
 -1      2136 3.23564E+01
 -1      2137 3.66388E+01
 -1      2138 3.48312E+01
 -1      2139 3.52182E+01
 -1      2140 2.03608E+01
 -1      2141 1.42323E+01
 -1      2142 3.41386E+01
 -1      2143 3.48725E+01
 -1      2144 3.68535E+01
 -1      2145 2.98989E+01
 -1      2146 3.22633E+01
 -1      2147 3.13688E+01
 -1      2148 2.93074E+01
 -1      2149 1.67638E+01
 -1      2150 3.68535E+01
 -1      2151 3.86198E+01
 -1      2152 3.88025E+01
 -1      2153 3.49220E+01
 -1      2154 3.49220E+01
 -1      2155 2.78074E+01
 -1      2156 2.66089E+01
 -1      2157 3.15596E+01
 -1      2158 2.87471E+01
 -1      2159 2.87471E+01
 -1      2160 3.35178E+01
 -1      2161 3.08306E+01
 -1      2162 3.49129E+01
 -1      2163 1.31840E+01
 -1      2164 1.41921E+01
 -1      2165 1.28901E+01
 -1      2166 1.38983E+01
 -1      2167 3.62672E+01
 -1      2168 3.44173E+01
 -1      2169 3.78701E+01
 -1      2170 2.90084E+01
 -1      2171 3.44629E+01
 -1      2172 3.08442E+01
 -1      2173 3.08442E+01
 -1      2174 3.00336E+01
 -1      2175 3.38109E+01
 -1      2176 3.36552E+01
 -1      2177 3.38109E+01
 -1      2178 2.97867E+01
 -1      2179 2.34155E+01
 -1      2180 3.92108E+01
 -1      2181 3.66618E+01
 -1      2182 3.92108E+01
 -1      2183 2.90911E+01
 -1      2184 3.33949E+01
 -1      2185 3.40234E+01
 -1      2186 2.82510E+01
 -1      2187 3.03649E+01
 -1      2188 3.29543E+01
 -1      2189 3.03642E+01
 -1      2190 3.18052E+01
 -1      2191 3.50810E+01
 -1      2192 3.23493E+01
 -1      2193 2.90911E+01
 -1      2194 1.27057E+01
 -1      2195 3.50046E+01
 -1      2196 2.35079E+01
 -1      2197 2.20579E+01
 -1      2198 3.49123E+01
 -1      2199 3.48199E+01
 -1      2200 2.32771E+01
 -1      2201 2.90084E+01
 -1      2202 3.50266E+01
 -1      2203 3.35663E+01
 -1      2204 3.57320E+01
 -1      2205 3.43348E+01
 -1      2206 3.36552E+01
 -1      2207 3.38979E+01
 -1      2208 3.49024E+01
 -1      2209 3.10250E+01
 -1      2210 3.86198E+01
 -1      2211 3.41406E+01
 -1      2212 3.17240E+01
 -1      2213 3.35178E+01
 -1      2214 7.55254E+00
 -1      2215 7.31713E+00
 -1      2216 1.02800E+01
 -1      2217 8.58681E+00
 -1      2218 2.21219E+01
 -1      2219 3.01898E+01
 -1      2220 2.93323E+01
 -1      2221 2.95588E+01
 -1      2222 3.42213E+01
 -1      2223 2.81638E+01
 -1      2224 3.12271E+01
 -1      2225 2.04592E+01
 -1      2226 1.03863E+01
 -1      2227 1.13437E+01
 -1      2228 3.41406E+01
 -1      2229 3.25171E+01
 -1      2230 3.18315E+01
 -1      2231 3.12185E+01
 -1      2232 3.00613E+01
 -1      2233 3.19607E+01
 -1      2234 1.38983E+01
 -1      2235 2.38645E+01
 -1      2236 2.11034E+01
 -1      2237 3.45974E+01
 -1      2238 3.39943E+01
 -1      2239 3.86198E+01
 -1      2240 3.68535E+01
 -1      2241 3.32551E+01
 -1      2242 3.01375E+01
 -1      2243 1.55914E+01
 -1      2244 2.10193E+01
 -1      2245 1.91040E+01
 -1      2246 1.65944E+01
 -1      2247 1.36719E+01
 -1      2248 1.17654E+01
 -1      2249 3.49380E+01
 -1      2250 1.20592E+01
 -1      2251 3.52987E+01
 -1      2252 3.75040E+01
 -1      2253 3.92108E+01
 -1      2254 2.97956E+01
 -1      2255 2.67482E+01
 -1      2256 3.19389E+01
 -1      2257 3.37357E+01
 -1      2258 3.67199E+01
 -1      2259 2.26302E+01
 -1      2260 2.45301E+01
 -1      2261 2.27638E+01
 -1      2262 2.26302E+01
 -1      2263 3.24363E+01
 -1      2264 3.40535E+01
 -1      2265 2.91782E+01
 -1      2266 3.52079E+01
 -1      2267 3.59312E+01
 -1      2268 3.27223E+01
 -1      2269 3.16098E+01
 -1      2270 3.32729E+01
 -1      2271 3.27223E+01
 -1      2272 3.16098E+01
 -1      2273 2.87332E+01
 -1      2274 3.33046E+01
 -1      2275 3.38979E+01
 -1      2276 3.40535E+01
 -1      2277 3.01898E+01
 -1      2278 3.32729E+01
 -1      2279 3.32729E+01
 -1      2280 3.27223E+01
 -1      2281 3.68122E+01
 -1      2282 3.39943E+01
 -1      2283 3.22442E+01
 -1      2284 3.03959E+01
 -1      2285 3.14496E+01
 -1      2286 2.98967E+01
 -1      2287 2.28291E+01
 -1      2288 2.97867E+01
 -1      2289 2.77426E+01
 -1      2290 2.62573E+01
 -1      2291 3.36411E+01
 -1      2292 2.21505E+01
 -1      2293 3.77495E+01
 -1      2294 1.11134E+01
 -1      2295 3.15094E+01
 -1      2296 3.44173E+01
 -1      2297 3.17929E+01
 -1      2298 2.90626E+01
 -1      2299 2.75679E+01
 -1      2300 3.34299E+01
 -1      2301 3.49720E+01
 -1      2302 3.44351E+01
 -1      2303 3.51125E+01
 -1      2304 3.48718E+01
 -1      2305 3.51125E+01
 -1      2306 3.26054E+01
 -1      2307 3.27223E+01
 -1      2308 2.99198E+01
 -1      2309 1.80995E+01
 -1      2310 7.42345E+00
 -1      2311 3.52987E+01
 -1      2312 3.14833E+01
 -1      2313 3.25084E+01
 -1      2314 3.73865E+01
 -1      2315 3.58323E+01
 -1      2316 3.71859E+01
 -1      2317 2.05077E+01
 -1      2318 3.14929E+01
 -1      2319 3.09862E+01
 -1      2320 2.94227E+01
 -1      2321 2.71708E+01
 -1      2322 2.20069E+01
 -1      2323 2.21219E+01
 -1      2324 1.74963E+01
 -1      2325 2.99446E+01
 -1      2326 3.06646E+01
 -1      2327 2.99446E+01
 -1      2328 2.77426E+01
 -1      2329 3.09862E+01
 -1      2330 2.66737E+01
 -1      2331 2.81104E+01
 -1      2332 2.76133E+01
 -1      2333 3.16098E+01
 -1      2334 3.19886E+01
 -1      2335 3.17929E+01
 -1      2336 2.77426E+01
 -1      2337 3.99842E+01
 -1      2338 3.52294E+01
 -1      2339 3.17389E+01
 -3
 9999
