    1C
    1UUSER                                                              
    1UDATE              15.july.2022                                    
    1UTIME              13:02:00                                        
    1UHOST                                                              
    1UPGM               CalculiX                                        
    1UVERSION           Version 2.19                             
    1UCOMPILETIME       Mon Jan  3 18:43:40 EET 2022                    
    1UDIR                                                               
    1UDBN                                                               
    1UMAT    1MATERIALSOLID                                             
    2C                          2374                                     1
 -1         1 9.10000E+02 6.60000E+02 9.00000E+01
 -1         2 9.10000E+02-6.60000E+02 9.00000E+01
 -1         3-9.10000E+02 6.60000E+02 9.00000E+01
 -1         4-9.10000E+02-6.60000E+02 9.00000E+01
 -1         5 9.10000E+02 6.60000E+02 1.00000E+01
 -1         6 9.10000E+02-6.60000E+02 1.00000E+01
 -1         7-9.10000E+02 6.60000E+02 1.00000E+01
 -1         8-9.10000E+02-6.60000E+02 1.00000E+01
 -1         9 9.90000E+02-7.40000E+02 9.00000E+01
 -1        10 9.90000E+02-7.40000E+02 1.00000E+01
 -1        11-9.90000E+02-7.40000E+02 9.00000E+01
 -1        12-9.90000E+02-7.40000E+02 1.00000E+01
 -1        13 9.90000E+02 7.40000E+02 9.00000E+01
 -1        14 9.90000E+02 7.40000E+02 1.00000E+01
 -1        15-9.90000E+02 7.40000E+02 9.00000E+01
 -1        16-9.90000E+02 7.40000E+02 1.00000E+01
 -1        17 5.63100E+00 1.50000E+02 1.00000E+02
 -1        18-4.36900E+00 1.50000E+02 1.00000E+02
 -1        19-4.36900E+00 1.50000E+02-3.10777E-14
 -1        20 5.63100E+00 1.50000E+02-3.10820E-14
 -1        21-9.00000E+02-6.50000E+02 1.00000E+02
 -1        22 9.00000E+02-6.50000E+02 1.00000E+02
 -1        23 9.00000E+02 6.50000E+02 1.00000E+02
 -1        24 5.63100E+00 6.50000E+02 1.00000E+02
 -1        25-4.36900E+00 6.50000E+02 1.00000E+02
 -1        26-9.00000E+02 6.50000E+02 1.00000E+02
 -1        27-4.36900E+00 6.50000E+02-1.42100E-13
 -1        28 5.63100E+00 6.50000E+02-1.42104E-13
 -1        29-9.00000E+02 6.50000E+02 0.00000E+00
 -1        30-9.00000E+02-6.50000E+02 0.00000E+00
 -1        31 9.00000E+02 6.50000E+02 0.00000E+00
 -1        32 9.00000E+02-6.50000E+02 0.00000E+00
 -1        33 1.00000E+03-7.50000E+02 1.00000E+02
 -1        34 1.00000E+03-7.50000E+02 0.00000E+00
 -1        35-1.00000E+03-7.50000E+02 1.00000E+02
 -1        36-1.00000E+03-7.50000E+02 0.00000E+00
 -1        37 1.00000E+03 7.50000E+02 1.00000E+02
 -1        38 1.00000E+03 7.50000E+02 0.00000E+00
 -1        39-1.00000E+03 7.50000E+02 1.00000E+02
 -1        40-1.00000E+03 7.50000E+02 0.00000E+00
 -1        41-7.69860E+02 6.60000E+02 1.00000E+01
 -1        42-5.42360E+02 6.60000E+02 1.00000E+01
 -1        43-3.58540E+02 6.60000E+02 1.00000E+01
 -1        44-2.23860E+02 6.60000E+02 1.00000E+01
 -1        45-1.21940E+02 6.60000E+02 1.00000E+01
 -1        46-5.82400E+01 6.60000E+02 1.00000E+01
 -1        47-3.64000E+00 6.60000E+02 1.00000E+01
 -1        48 4.18600E+01 6.60000E+02 1.00000E+01
 -1        49 1.03740E+02 6.60000E+02 1.00000E+01
 -1        50 1.87460E+02 6.60000E+02 1.00000E+01
 -1        51 3.00300E+02 6.60000E+02 1.00000E+01
 -1        52 4.44080E+02 6.60000E+02 1.00000E+01
 -1        53 6.58840E+02 6.60000E+02 1.00000E+01
 -1        54 8.17180E+02 6.60000E+02 1.00000E+01
 -1        55-7.93520E+02 6.60000E+02 9.00000E+01
 -1        56-6.31540E+02 6.60000E+02 9.00000E+01
 -1        57-4.34980E+02 6.60000E+02 9.00000E+01
 -1        58-2.83920E+02 6.60000E+02 9.00000E+01
 -1        59-1.80180E+02 6.60000E+02 9.00000E+01
 -1        60-1.01920E+02 6.60000E+02 9.00000E+01
 -1        61-4.73200E+01 6.60000E+02 9.00000E+01
 -1        62-5.46000E+00 6.60000E+02 9.00000E+01
 -1        63 2.36600E+01 6.60000E+02 9.00000E+01
 -1        64 6.91600E+01 6.60000E+02 9.00000E+01
 -1        65 1.58340E+02 6.60000E+02 9.00000E+01
 -1        66 2.85740E+02 6.60000E+02 9.00000E+01
 -1        67 4.78660E+02 6.60000E+02 9.00000E+01
 -1        68 6.75220E+02 6.60000E+02 9.00000E+01
 -1        69 8.09900E+02 6.60000E+02 9.00000E+01
 -1        70 9.10000E+02 5.68920E+02 1.00000E+01
 -1        71 9.10000E+02 3.85440E+02 1.00000E+01
 -1        72 9.10000E+02 1.20120E+02 1.00000E+01
 -1        73 9.10000E+02-2.36280E+02 1.00000E+01
 -1        74 9.10000E+02-4.36920E+02 1.00000E+01
 -1        75 9.10000E+02-5.68920E+02 1.00000E+01
 -1        76 9.10000E+02 5.62320E+02 9.00000E+01
 -1        77 9.10000E+02 3.97320E+02 9.00000E+01
 -1        78 9.10000E+02 1.30680E+02 9.00000E+01
 -1        79 9.10000E+02-1.91400E+02 9.00000E+01
 -1        80 9.10000E+02-4.10520E+02 9.00000E+01
 -1        81 9.10000E+02-5.54400E+02 9.00000E+01
 -1        82 8.17180E+02-6.60000E+02 1.00000E+01
 -1        83 6.67940E+02-6.60000E+02 1.00000E+01
 -1        84 4.56820E+02-6.60000E+02 1.00000E+01
 -1        85 7.28000E+01-6.60000E+02 1.00000E+01
 -1        86-3.00300E+02-6.60000E+02 1.00000E+01
 -1        87-5.64200E+02-6.60000E+02 1.00000E+01
 -1        88-7.82600E+02-6.60000E+02 1.00000E+01
 -1        89 8.11720E+02-6.60000E+02 9.00000E+01
 -1        90 6.84320E+02-6.60000E+02 9.00000E+01
 -1        91 5.05960E+02-6.60000E+02 9.00000E+01
 -1        92 2.25680E+02-6.60000E+02 9.00000E+01
 -1        93-1.52880E+02-6.60000E+02 9.00000E+01
 -1        94-4.47720E+02-6.60000E+02 9.00000E+01
 -1        95-6.49740E+02-6.60000E+02 9.00000E+01
 -1        96-8.02620E+02-6.60000E+02 9.00000E+01
 -1        97-9.10000E+02-5.67600E+02 1.00000E+01
 -1        98-9.10000E+02-4.35600E+02 1.00000E+01
 -1        99-9.10000E+02-2.32320E+02 1.00000E+01
 -1       100-9.10000E+02 1.25400E+02 1.00000E+01
 -1       101-9.10000E+02 3.89400E+02 1.00000E+01
 -1       102-9.10000E+02 5.71560E+02 1.00000E+01
 -1       103-9.10000E+02-5.53080E+02 9.00000E+01
 -1       104-9.10000E+02-4.07880E+02 9.00000E+01
 -1       105-9.10000E+02-1.86120E+02 9.00000E+01
 -1       106-9.10000E+02 1.35960E+02 9.00000E+01
 -1       107-9.10000E+02 3.99960E+02 9.00000E+01
 -1       108-9.10000E+02 5.63640E+02 9.00000E+01
 -1       109 9.00900E+02-7.40000E+02 1.00000E+01
 -1       110 7.90020E+02-7.40000E+02 1.00000E+01
 -1       111 6.43500E+02-7.40000E+02 1.00000E+01
 -1       112 4.31640E+02-7.40000E+02 1.00000E+01
 -1       113 4.15800E+01-7.40000E+02 1.00000E+01
 -1       114-3.36600E+02-7.40000E+02 1.00000E+01
 -1       115-5.97960E+02-7.40000E+02 1.00000E+01
 -1       116-7.74180E+02-7.40000E+02 1.00000E+01
 -1       117-9.02880E+02-7.40000E+02 1.00000E+01
 -1       118 9.02880E+02-7.40000E+02 9.00000E+01
 -1       119 7.66260E+02-7.40000E+02 9.00000E+01
 -1       120 5.70240E+02-7.40000E+02 9.00000E+01
 -1       121 3.08880E+02-7.40000E+02 9.00000E+01
 -1       122-4.15800E+01-7.40000E+02 9.00000E+01
 -1       123-3.82140E+02-7.40000E+02 9.00000E+01
 -1       124-6.19740E+02-7.40000E+02 9.00000E+01
 -1       125-7.80120E+02-7.40000E+02 9.00000E+01
 -1       126-9.00900E+02-7.40000E+02 9.00000E+01
 -1       127-8.94960E+02 7.40000E+02 9.00000E+01
 -1       128-7.66260E+02 7.40000E+02 9.00000E+01
 -1       129-5.88060E+02 7.40000E+02 9.00000E+01
 -1       130-3.92040E+02 7.40000E+02 9.00000E+01
 -1       131-2.55420E+02 7.40000E+02 9.00000E+01
 -1       132-1.36620E+02 7.40000E+02 9.00000E+01
 -1       133-5.74200E+01 7.40000E+02 9.00000E+01
 -1       134 1.18800E+01 7.40000E+02 9.00000E+01
 -1       135 9.90000E+01 7.40000E+02 9.00000E+01
 -1       136 2.11860E+02 7.40000E+02 9.00000E+01
 -1       137 3.58380E+02 7.40000E+02 9.00000E+01
 -1       138 5.68260E+02 7.40000E+02 9.00000E+01
 -1       139 7.58340E+02 7.40000E+02 9.00000E+01
 -1       140 9.00900E+02 7.40000E+02 9.00000E+01
 -1       141 9.90000E+02 6.40840E+02 9.00000E+01
 -1       142 9.90000E+02 5.28360E+02 9.00000E+01
 -1       143 9.90000E+02 3.65560E+02 9.00000E+01
 -1       144 9.90000E+02 1.13960E+02 9.00000E+01
 -1       145 9.90000E+02-1.77600E+02 9.00000E+01
 -1       146 9.90000E+02-3.84800E+02 9.00000E+01
 -1       147 9.90000E+02-5.26880E+02 9.00000E+01
 -1       148 9.90000E+02-6.34920E+02 9.00000E+01
 -1       149-9.90000E+02-6.23080E+02 9.00000E+01
 -1       150-9.90000E+02-4.64720E+02 9.00000E+01
 -1       151-9.90000E+02-2.36800E+02 9.00000E+01
 -1       152-9.90000E+02 6.66000E+01 9.00000E+01
 -1       153-9.90000E+02 3.46320E+02 9.00000E+01
 -1       154-9.90000E+02 5.12080E+02 9.00000E+01
 -1       155-9.90000E+02 6.36400E+02 9.00000E+01
 -1       156-8.92980E+02 7.40000E+02 1.00000E+01
 -1       157-7.64280E+02 7.40000E+02 1.00000E+01
 -1       158-5.90040E+02 7.40000E+02 1.00000E+01
 -1       159-3.86100E+02 7.40000E+02 1.00000E+01
 -1       160-2.47500E+02 7.40000E+02 1.00000E+01
 -1       161-1.28700E+02 7.40000E+02 1.00000E+01
 -1       162-3.16800E+01 7.40000E+02 1.00000E+01
 -1       163 4.35600E+01 7.40000E+02 1.00000E+01
 -1       164 1.48500E+02 7.40000E+02 1.00000E+01
 -1       165 2.77200E+02 7.40000E+02 1.00000E+01
 -1       166 4.45500E+02 7.40000E+02 1.00000E+01
 -1       167 6.41520E+02 7.40000E+02 1.00000E+01
 -1       168 7.88040E+02 7.40000E+02 1.00000E+01
 -1       169 9.00900E+02 7.40000E+02 1.00000E+01
 -1       170 9.90000E+02 6.34920E+02 1.00000E+01
 -1       171 9.90000E+02 5.04680E+02 1.00000E+01
 -1       172 9.90000E+02 2.76760E+02 1.00000E+01
 -1       173 9.90000E+02-4.14400E+01 1.00000E+01
 -1       174 9.90000E+02-3.41880E+02 1.00000E+01
 -1       175 9.90000E+02-5.13560E+02 1.00000E+01
 -1       176 9.90000E+02-6.30480E+02 1.00000E+01
 -1       177-9.90000E+02-6.31960E+02 1.00000E+01
 -1       178-9.90000E+02-5.12080E+02 1.00000E+01
 -1       179-9.90000E+02-3.46320E+02 1.00000E+01
 -1       180-9.90000E+02-5.47600E+01 1.00000E+01
 -1       181-9.90000E+02 2.76760E+02 1.00000E+01
 -1       182-9.90000E+02 5.09120E+02 1.00000E+01
 -1       183-9.90000E+02 6.36400E+02 1.00000E+01
 -1       184 5.63100E+00 1.50000E+02 7.04000E+01
 -1       185 5.63100E+00 1.50000E+02 3.23000E+01
 -1       186-4.36900E+00 1.50000E+02 3.24000E+01
 -1       187-4.36900E+00 1.50000E+02 7.05000E+01
 -1       188-4.36900E+00 6.16000E+02-1.34550E-13
 -1       189-4.36900E+00 5.65500E+02-1.23337E-13
 -1       190-4.36900E+00 4.98000E+02-1.08349E-13
 -1       191-4.36900E+00 3.98500E+02-8.62558E-14
 -1       192-4.36900E+00 2.95500E+02-6.33852E-14
 -1       193-4.36900E+00 2.25000E+02-4.77310E-14
 -1       194-4.36900E+00 1.80500E+02-3.78501E-14
 -1       195-4.36900E+00 6.15500E+02 1.00000E+02
 -1       196-4.36900E+00 5.64500E+02 1.00000E+02
 -1       197-4.36900E+00 4.95500E+02 1.00000E+02
 -1       198-4.36900E+00 3.94500E+02 1.00000E+02
 -1       199-4.36900E+00 2.98000E+02 1.00000E+02
 -1       200-4.36900E+00 2.26000E+02 1.00000E+02
 -1       201-4.36900E+00 1.81000E+02 1.00000E+02
 -1       202-4.36900E+00 6.50000E+02 3.24000E+01
 -1       203-4.36900E+00 6.50000E+02 7.05000E+01
 -1       204 5.63100E+00 6.15500E+02 1.00000E+02
 -1       205 5.63100E+00 5.64500E+02 1.00000E+02
 -1       206 5.63100E+00 4.95500E+02 1.00000E+02
 -1       207 5.63100E+00 3.94500E+02 1.00000E+02
 -1       208 5.63100E+00 2.98000E+02 1.00000E+02
 -1       209 5.63100E+00 2.26000E+02 1.00000E+02
 -1       210 5.63100E+00 1.81000E+02 1.00000E+02
 -1       211 5.63100E+00 6.16000E+02-1.34555E-13
 -1       212 5.63100E+00 5.65500E+02-1.23342E-13
 -1       213 5.63100E+00 4.98000E+02-1.08353E-13
 -1       214 5.63100E+00 3.98500E+02-8.62601E-14
 -1       215 5.63100E+00 2.95500E+02-6.33895E-14
 -1       216 5.63100E+00 2.25000E+02-4.77353E-14
 -1       217 5.63100E+00 1.80500E+02-3.78543E-14
 -1       218 5.63100E+00 6.50000E+02 7.04000E+01
 -1       219 5.63100E+00 6.50000E+02 3.23000E+01
 -1       220-7.77299E+02 6.50000E+02 1.00000E+02
 -1       221-6.10711E+02 6.50000E+02 1.00000E+02
 -1       222-4.17255E+02 6.50000E+02 1.00000E+02
 -1       223-2.73954E+02 6.50000E+02 1.00000E+02
 -1       224-1.72748E+02 6.50000E+02 1.00000E+02
 -1       225-9.66190E+01 6.50000E+02 1.00000E+02
 -1       226-4.37768E+01 6.50000E+02 1.00000E+02
 -1       227-4.82549E+01 6.50000E+02 0.00000E+00
 -1       228-1.09158E+02 6.50000E+02 0.00000E+00
 -1       229-1.93347E+02 6.50000E+02 0.00000E+00
 -1       230-3.24109E+02 6.50000E+02 0.00000E+00
 -1       231-5.00549E+02 6.50000E+02 0.00000E+00
 -1       232-7.36995E+02 6.50000E+02 0.00000E+00
 -1       233 4.23001E+01 6.50000E+02 1.00000E+02
 -1       234 1.09378E+02 6.50000E+02 1.00000E+02
 -1       235 2.28329E+02 6.50000E+02 1.00000E+02
 -1       236 4.04520E+02 6.50000E+02 1.00000E+02
 -1       237 6.30795E+02 6.50000E+02 1.00000E+02
 -1       238 7.88204E+02 6.50000E+02 1.00000E+02
 -1       239 7.96253E+02 6.50000E+02 0.00000E+00
 -1       240 6.35267E+02 6.50000E+02 0.00000E+00
 -1       241 4.37611E+02 6.50000E+02 0.00000E+00
 -1       242 3.03456E+02 6.50000E+02 0.00000E+00
 -1       243 2.03287E+02 6.50000E+02 0.00000E+00
 -1       244 1.31737E+02 6.50000E+02 0.00000E+00
 -1       245 7.89693E+01 6.50000E+02 0.00000E+00
 -1       246 3.69339E+01 6.50000E+02 0.00000E+00
 -1       247-9.00000E+02-5.42100E+02 1.00000E+02
 -1       248-9.00000E+02-3.97800E+02 1.00000E+02
 -1       249-9.00000E+02-1.80700E+02 1.00000E+02
 -1       250-9.00000E+02 1.30000E+02 1.00000E+02
 -1       251-9.00000E+02 3.88700E+02 1.00000E+02
 -1       252-9.00000E+02 5.53800E+02 1.00000E+02
 -1       253-9.00000E+02 5.20000E+02 0.00000E+00
 -1       254-9.00000E+02 2.84700E+02 0.00000E+00
 -1       255-9.00000E+02-5.07000E+01 0.00000E+00
 -1       256-9.00000E+02-3.57500E+02 0.00000E+00
 -1       257-9.00000E+02-5.30400E+02 0.00000E+00
 -1       258 7.88400E+02-6.50000E+02 1.00000E+02
 -1       259 6.35400E+02-6.50000E+02 1.00000E+02
 -1       260 4.01400E+02-6.50000E+02 1.00000E+02
 -1       261 5.04000E+01-6.50000E+02 1.00000E+02
 -1       262-3.36600E+02-6.50000E+02 1.00000E+02
 -1       263-5.92200E+02-6.50000E+02 1.00000E+02
 -1       264-7.72200E+02-6.50000E+02 1.00000E+02
 -1       265-7.57800E+02-6.50000E+02 0.00000E+00
 -1       266-5.45400E+02-6.50000E+02 0.00000E+00
 -1       267-2.93400E+02-6.50000E+02 0.00000E+00
 -1       268 6.48000E+01-6.50000E+02 0.00000E+00
 -1       269 4.32000E+02-6.50000E+02 0.00000E+00
 -1       270 6.42600E+02-6.50000E+02 0.00000E+00
 -1       271 7.99200E+02-6.50000E+02 0.00000E+00
 -1       272 9.00000E+02 5.51200E+02 1.00000E+02
 -1       273 9.00000E+02 3.86100E+02 1.00000E+02
 -1       274 9.00000E+02 1.24800E+02 1.00000E+02
 -1       275 9.00000E+02-1.85900E+02 1.00000E+02
 -1       276 9.00000E+02-4.00400E+02 1.00000E+02
 -1       277 9.00000E+02-5.44700E+02 1.00000E+02
 -1       278 9.00000E+02-5.29100E+02 0.00000E+00
 -1       279 9.00000E+02-3.54900E+02 0.00000E+00
 -1       280 9.00000E+02-4.55000E+01 0.00000E+00
 -1       281 9.00000E+02 2.88600E+02 0.00000E+00
 -1       282 9.00000E+02 5.21300E+02 0.00000E+00
 -1       283 8.88000E+02-7.50000E+02 0.00000E+00
 -1       284 7.78000E+02-7.50000E+02 0.00000E+00
 -1       285 6.30000E+02-7.50000E+02 0.00000E+00
 -1       286 4.12000E+02-7.50000E+02 0.00000E+00
 -1       287 3.60000E+01-7.50000E+02 0.00000E+00
 -1       288-3.32000E+02-7.50000E+02 0.00000E+00
 -1       289-5.86000E+02-7.50000E+02 0.00000E+00
 -1       290-7.62000E+02-7.50000E+02 0.00000E+00
 -1       291-8.90000E+02-7.50000E+02 0.00000E+00
 -1       292 9.10000E+02-7.50000E+02 1.00000E+02
 -1       293 7.76000E+02-7.50000E+02 1.00000E+02
 -1       294 5.78000E+02-7.50000E+02 1.00000E+02
 -1       295 3.12000E+02-7.50000E+02 1.00000E+02
 -1       296-4.80000E+01-7.50000E+02 1.00000E+02
 -1       297-3.92000E+02-7.50000E+02 1.00000E+02
 -1       298-6.30000E+02-7.50000E+02 1.00000E+02
 -1       299-7.92000E+02-7.50000E+02 1.00000E+02
 -1       300-9.12000E+02-7.50000E+02 1.00000E+02
 -1       301-9.06000E+02 7.50000E+02 1.00000E+02
 -1       302-7.80000E+02 7.50000E+02 1.00000E+02
 -1       303-6.10000E+02 7.50000E+02 1.00000E+02
 -1       304-4.04000E+02 7.50000E+02 1.00000E+02
 -1       305-2.62000E+02 7.50000E+02 1.00000E+02
 -1       306-1.42000E+02 7.50000E+02 1.00000E+02
 -1       307-6.00000E+01 7.50000E+02 1.00000E+02
 -1       308 1.20000E+01 7.50000E+02 1.00000E+02
 -1       309 1.00000E+02 7.50000E+02 1.00000E+02
 -1       310 2.16000E+02 7.50000E+02 1.00000E+02
 -1       311 3.66000E+02 7.50000E+02 1.00000E+02
 -1       312 5.78000E+02 7.50000E+02 1.00000E+02
 -1       313 7.70000E+02 7.50000E+02 1.00000E+02
 -1       314 9.10000E+02 7.50000E+02 1.00000E+02
 -1       315-1.00000E+03-6.34500E+02 1.00000E+02
 -1       316-1.00000E+03-4.75500E+02 1.00000E+02
 -1       317-1.00000E+03-2.43000E+02 1.00000E+02
 -1       318-1.00000E+03 6.75000E+01 1.00000E+02
 -1       319-1.00000E+03 3.51000E+02 1.00000E+02
 -1       320-1.00000E+03 5.22000E+02 1.00000E+02
 -1       321-1.00000E+03 6.46500E+02 1.00000E+02
 -1       322 1.00000E+03 6.39000E+02 1.00000E+02
 -1       323 1.00000E+03 4.90500E+02 1.00000E+02
 -1       324 1.00000E+03 2.79000E+02 1.00000E+02
 -1       325 1.00000E+03 4.50000E+00 1.00000E+02
 -1       326 1.00000E+03-2.67000E+02 1.00000E+02
 -1       327 1.00000E+03-4.72500E+02 1.00000E+02
 -1       328 1.00000E+03-6.18000E+02 1.00000E+02
 -1       329-8.84000E+02 7.50000E+02 0.00000E+00
 -1       330-7.46000E+02 7.50000E+02 0.00000E+00
 -1       331-5.58000E+02 7.50000E+02 0.00000E+00
 -1       332-3.58000E+02 7.50000E+02 0.00000E+00
 -1       333-2.24000E+02 7.50000E+02 0.00000E+00
 -1       334-1.12000E+02 7.50000E+02 0.00000E+00
 -1       335-3.40000E+01 7.50000E+02 0.00000E+00
 -1       336 3.80000E+01 7.50000E+02 0.00000E+00
 -1       337 1.20000E+02 7.50000E+02 0.00000E+00
 -1       338 2.38000E+02 7.50000E+02 0.00000E+00
 -1       339 4.04000E+02 7.50000E+02 0.00000E+00
 -1       340 6.08000E+02 7.50000E+02 0.00000E+00
 -1       341 7.68000E+02 7.50000E+02 0.00000E+00
 -1       342 8.86000E+02 7.50000E+02 0.00000E+00
 -1       343-1.00000E+03-6.36000E+02 0.00000E+00
 -1       344-1.00000E+03-5.16000E+02 0.00000E+00
 -1       345-1.00000E+03-3.54000E+02 0.00000E+00
 -1       346-1.00000E+03-7.35000E+01 0.00000E+00
 -1       347-1.00000E+03 2.65500E+02 0.00000E+00
 -1       348-1.00000E+03 4.99500E+02 0.00000E+00
 -1       349-1.00000E+03 6.34500E+02 0.00000E+00
 -1       350 1.00000E+03 6.36000E+02 0.00000E+00
 -1       351 1.00000E+03 4.86000E+02 0.00000E+00
 -1       352 1.00000E+03 2.68500E+02 0.00000E+00
 -1       353 1.00000E+03-2.55000E+01 0.00000E+00
 -1       354 1.00000E+03-3.19500E+02 0.00000E+00
 -1       355 1.00000E+03-5.05500E+02 0.00000E+00
 -1       356 1.00000E+03-6.43500E+02 0.00000E+00
 -1       357 1.91100E+01 6.60000E+02 4.29721E+01
 -1       358-2.63900E+01 6.60000E+02 5.70279E+01
 -1       359 9.10000E+02-2.63209E+01 7.00272E+01
 -1       360-2.63900E+01 6.92972E+02 9.00000E+01
 -1       361 2.73000E+00 6.92972E+02 9.00000E+01
 -1       362 4.64100E+01 6.92972E+02 9.00000E+01
 -1       363-7.96700E+01 7.00000E+02 9.00000E+01
 -1       364 1.91100E+01 6.92972E+02 1.00000E+01
 -1       365-4.36900E+00 5.90750E+02 4.69564E+01
 -1       366-4.36900E+00 5.23250E+02 4.69564E+01
 -1       367-4.36900E+00 1.89964E+02 5.14500E+01
 -1       368 5.63100E+00 5.90000E+02 5.30436E+01
 -1       369 5.63100E+00 5.21000E+02 5.30436E+01
 -1       370 5.63100E+00 2.03500E+02 6.70279E+01
 -1       371 5.63100E+00 2.02750E+02 3.29721E+01
 -1       372 6.30996E-01 5.96463E+02 1.00000E+02
 -1       373 6.30996E-01 2.53111E+02 1.00000E+02
 -1       374 6.30996E-01 5.37389E+02 1.00000E+02
 -1       375 6.30996E-01 4.52241E+02 1.00000E+02
 -1       376 6.30996E-01 3.41259E+02 1.00000E+02
 -1       377-4.60158E+01 6.50000E+02 5.00000E+01
 -1       378 6.30996E-01 5.96963E+02-1.30323E-13
 -1       379 6.30996E-01 2.52111E+02-5.37509E-14
 -1       380 6.30996E-01 5.38389E+02-1.17317E-13
 -1       381 6.30996E-01 4.54741E+02-9.87437E-14
 -1       382 6.30996E-01 3.38759E+02-7.29907E-14
 -1       383 7.58390E+01 6.50000E+02 5.33857E+01
 -1       384-2.40729E+01 6.82972E+02 1.00000E+02
 -1       385 2.39656E+01 6.82972E+02 1.00000E+02
 -1       386 7.58390E+01 6.96614E+02 1.00000E+02
 -1       387 6.30996E-01 6.75980E+02 1.00000E+02
 -1       388 1.05353E+02 6.96956E+02 0.00000E+00
 -1       389 6.33178E+01 6.96956E+02 0.00000E+00
 -1       390 3.20149E+01 6.96956E+02 0.00000E+00
 -1       391-2.63120E+01 6.82972E+02 0.00000E+00
 -1       392-7.87064E+01 6.96956E+02 0.00000E+00
 -1       393 2.00000E+00 6.89059E+02 0.00000E+00
 -1       394 5.59783E-01 5.03026E+02 5.02535E+01
 -1       395 2.38241E+00 4.27827E+02 4.21582E+01
 -1       396 3.45359E+00 4.49170E+02 6.44021E+01
 -1       397-6.28458E-01 2.14408E+02 6.15196E+01
 -1       398-1.31212E+00 4.31436E+02 4.64620E+01
 -1       399 6.31501E-01 3.36806E+02 4.89798E+01
 -1       400 1.75612E+00 2.49570E+02 3.52827E+01
 -1       401-1.10990E+00 2.71276E+02 5.41536E+01
 -1       402-9.10000E+02 6.60000E+02 5.00000E+01
 -1       403 9.10000E+02 6.60000E+02 5.00000E+01
 -1       404-8.39930E+02 6.60000E+02 1.00000E+01
 -1       405-6.56110E+02 6.60000E+02 1.00000E+01
 -1       406-4.50450E+02 6.60000E+02 1.00000E+01
 -1       407-2.91200E+02 6.60000E+02 1.00000E+01
 -1       408-1.72900E+02 6.60000E+02 1.00000E+01
 -1       409-9.00900E+01 6.60000E+02 1.00000E+01
 -1       410-3.09400E+01 6.60000E+02 1.00000E+01
 -1       411 1.91100E+01 6.60000E+02 1.00000E+01
 -1       412 7.28000E+01 6.60000E+02 1.00000E+01
 -1       413 1.45600E+02 6.60000E+02 1.00000E+01
 -1       414 2.43880E+02 6.60000E+02 1.00000E+01
 -1       415 3.72190E+02 6.60000E+02 1.00000E+01
 -1       416 5.51460E+02 6.60000E+02 1.00000E+01
 -1       417 7.38010E+02 6.60000E+02 1.00000E+01
 -1       418 8.63590E+02 6.60000E+02 1.00000E+01
 -1       419-8.51760E+02 6.60000E+02 9.00000E+01
 -1       420-7.12530E+02 6.60000E+02 9.00000E+01
 -1       421-5.33260E+02 6.60000E+02 9.00000E+01
 -1       422-3.59450E+02 6.60000E+02 9.00000E+01
 -1       423-2.32050E+02 6.60000E+02 9.00000E+01
 -1       424-1.41050E+02 6.60000E+02 9.00000E+01
 -1       425-7.46200E+01 6.60000E+02 9.00000E+01
 -1       426-2.63900E+01 6.60000E+02 9.00000E+01
 -1       427 9.10000E+00 6.60000E+02 9.00000E+01
 -1       428 4.64100E+01 6.60000E+02 9.00000E+01
 -1       429 1.13750E+02 6.60000E+02 9.00000E+01
 -1       430 2.22040E+02 6.60000E+02 9.00000E+01
 -1       431 3.82200E+02 6.60000E+02 9.00000E+01
 -1       432 5.76940E+02 6.60000E+02 9.00000E+01
 -1       433 7.42560E+02 6.60000E+02 9.00000E+01
 -1       434 8.59950E+02 6.60000E+02 9.00000E+01
 -1       435 9.10000E+02-6.60000E+02 5.00000E+01
 -1       436 9.10000E+02 6.14460E+02 1.00000E+01
 -1       437 9.10000E+02 4.77180E+02 1.00000E+01
 -1       438 9.10000E+02 2.52780E+02 1.00000E+01
 -1       439 9.10000E+02-5.80800E+01 1.00000E+01
 -1       440 9.10000E+02-3.36600E+02 1.00000E+01
 -1       441 9.10000E+02-5.02920E+02 1.00000E+01
 -1       442 9.10000E+02-6.14460E+02 1.00000E+01
 -1       443 9.10000E+02 6.11160E+02 9.00000E+01
 -1       444 9.10000E+02 4.79820E+02 9.00000E+01
 -1       445 9.10000E+02 2.64000E+02 9.00000E+01
 -1       446 9.10000E+02-3.03600E+01 9.00000E+01
 -1       447 9.10000E+02-3.00960E+02 9.00000E+01
 -1       448 9.10000E+02-4.82460E+02 9.00000E+01
 -1       449 9.10000E+02-6.07200E+02 9.00000E+01
 -1       450-9.10000E+02-6.60000E+02 5.00000E+01
 -1       451 8.63590E+02-6.60000E+02 1.00000E+01
 -1       452 7.42560E+02-6.60000E+02 1.00000E+01
 -1       453 5.62380E+02-6.60000E+02 1.00000E+01
 -1       454 2.64810E+02-6.60000E+02 1.00000E+01
 -1       455-1.13750E+02-6.60000E+02 1.00000E+01
 -1       456-4.32250E+02-6.60000E+02 1.00000E+01
 -1       457-6.73400E+02-6.60000E+02 1.00000E+01
 -1       458-8.46300E+02-6.60000E+02 1.00000E+01
 -1       459 8.60860E+02-6.60000E+02 9.00000E+01
 -1       460 7.48020E+02-6.60000E+02 9.00000E+01
 -1       461 5.95140E+02-6.60000E+02 9.00000E+01
 -1       462 3.65820E+02-6.60000E+02 9.00000E+01
 -1       463 3.64000E+01-6.60000E+02 9.00000E+01
 -1       464-3.00300E+02-6.60000E+02 9.00000E+01
 -1       465-5.48730E+02-6.60000E+02 9.00000E+01
 -1       466-7.26180E+02-6.60000E+02 9.00000E+01
 -1       467-8.56310E+02-6.60000E+02 9.00000E+01
 -1       468-9.10000E+02-6.13800E+02 1.00000E+01
 -1       469-9.10000E+02-5.01600E+02 1.00000E+01
 -1       470-9.10000E+02-3.33960E+02 1.00000E+01
 -1       471-9.10000E+02-5.34600E+01 1.00000E+01
 -1       472-9.10000E+02 2.57400E+02 1.00000E+01
 -1       473-9.10000E+02 4.80480E+02 1.00000E+01
 -1       474-9.10000E+02 6.15780E+02 1.00000E+01
 -1       475-9.10000E+02-6.06540E+02 9.00000E+01
 -1       476-9.10000E+02-4.80480E+02 9.00000E+01
 -1       477-9.10000E+02-2.97000E+02 9.00000E+01
 -1       478-9.10000E+02-2.50800E+01 9.00000E+01
 -1       479-9.10000E+02 2.67960E+02 9.00000E+01
 -1       480-9.10000E+02 4.81800E+02 9.00000E+01
 -1       481-9.10000E+02 6.11820E+02 9.00000E+01
 -1       482 9.90000E+02-7.40000E+02 5.00000E+01
 -1       483-9.90000E+02-7.40000E+02 5.00000E+01
 -1       484 9.45450E+02-7.40000E+02 1.00000E+01
 -1       485 8.45460E+02-7.40000E+02 1.00000E+01
 -1       486 7.16760E+02-7.40000E+02 1.00000E+01
 -1       487 5.37570E+02-7.40000E+02 1.00000E+01
 -1       488 2.36610E+02-7.40000E+02 1.00000E+01
 -1       489-1.47510E+02-7.40000E+02 1.00000E+01
 -1       490-4.67280E+02-7.40000E+02 1.00000E+01
 -1       491-6.86070E+02-7.40000E+02 1.00000E+01
 -1       492-8.38530E+02-7.40000E+02 1.00000E+01
 -1       493-9.46440E+02-7.40000E+02 1.00000E+01
 -1       494 9.46440E+02-7.40000E+02 9.00000E+01
 -1       495 8.34570E+02-7.40000E+02 9.00000E+01
 -1       496 6.68250E+02-7.40000E+02 9.00000E+01
 -1       497 4.39560E+02-7.40000E+02 9.00000E+01
 -1       498 1.33650E+02-7.40000E+02 9.00000E+01
 -1       499-2.11860E+02-7.40000E+02 9.00000E+01
 -1       500-5.00940E+02-7.40000E+02 9.00000E+01
 -1       501-6.99930E+02-7.40000E+02 9.00000E+01
 -1       502-8.40510E+02-7.40000E+02 9.00000E+01
 -1       503-9.45450E+02-7.40000E+02 9.00000E+01
 -1       504-9.42480E+02 7.40000E+02 9.00000E+01
 -1       505-8.30610E+02 7.40000E+02 9.00000E+01
 -1       506-6.77160E+02 7.40000E+02 9.00000E+01
 -1       507-4.90050E+02 7.40000E+02 9.00000E+01
 -1       508-3.23730E+02 7.40000E+02 9.00000E+01
 -1       509-1.96020E+02 7.40000E+02 9.00000E+01
 -1       510-9.70200E+01 7.40000E+02 9.00000E+01
 -1       511-2.27700E+01 7.40000E+02 9.00000E+01
 -1       512 5.54400E+01 7.40000E+02 9.00000E+01
 -1       513 1.55430E+02 7.40000E+02 9.00000E+01
 -1       514 2.85120E+02 7.40000E+02 9.00000E+01
 -1       515 4.63320E+02 7.40000E+02 9.00000E+01
 -1       516 6.63300E+02 7.40000E+02 9.00000E+01
 -1       517 8.29620E+02 7.40000E+02 9.00000E+01
 -1       518 9.45450E+02 7.40000E+02 9.00000E+01
 -1       519 9.90000E+02 6.90420E+02 9.00000E+01
 -1       520 9.90000E+02 5.84600E+02 9.00000E+01
 -1       521 9.90000E+02 4.46960E+02 9.00000E+01
 -1       522 9.90000E+02 2.39760E+02 9.00000E+01
 -1       523 9.90000E+02-3.18200E+01 9.00000E+01
 -1       524 9.90000E+02-2.81200E+02 9.00000E+01
 -1       525 9.90000E+02-4.55840E+02 9.00000E+01
 -1       526 9.90000E+02-5.80900E+02 9.00000E+01
 -1       527 9.90000E+02-6.87460E+02 9.00000E+01
 -1       528-9.90000E+02-6.81540E+02 9.00000E+01
 -1       529-9.90000E+02-5.43900E+02 9.00000E+01
 -1       530-9.90000E+02-3.50760E+02 9.00000E+01
 -1       531-9.90000E+02-8.51000E+01 9.00000E+01
 -1       532-9.90000E+02 2.06460E+02 9.00000E+01
 -1       533-9.90000E+02 4.29200E+02 9.00000E+01
 -1       534-9.90000E+02 5.74240E+02 9.00000E+01
 -1       535-9.90000E+02 6.88200E+02 9.00000E+01
 -1       536-9.41490E+02 7.40000E+02 1.00000E+01
 -1       537-8.28630E+02 7.40000E+02 1.00000E+01
 -1       538-6.77160E+02 7.40000E+02 1.00000E+01
 -1       539-4.88070E+02 7.40000E+02 1.00000E+01
 -1       540-3.16800E+02 7.40000E+02 1.00000E+01
 -1       541-1.88100E+02 7.40000E+02 1.00000E+01
 -1       542-8.01900E+01 7.40000E+02 1.00000E+01
 -1       543 5.94000E+00 7.40000E+02 1.00000E+01
 -1       544 9.60300E+01 7.40000E+02 1.00000E+01
 -1       545 2.12850E+02 7.40000E+02 1.00000E+01
 -1       546 3.61350E+02 7.40000E+02 1.00000E+01
 -1       547 5.43510E+02 7.40000E+02 1.00000E+01
 -1       548 7.14780E+02 7.40000E+02 1.00000E+01
 -1       549 8.44470E+02 7.40000E+02 1.00000E+01
 -1       550 9.45450E+02 7.40000E+02 1.00000E+01
 -1       551 9.90000E+02 6.87460E+02 1.00000E+01
 -1       552 9.90000E+02 5.69800E+02 1.00000E+01
 -1       553 9.90000E+02 3.90720E+02 1.00000E+01
 -1       554 9.90000E+02 1.17660E+02 1.00000E+01
 -1       555 9.90000E+02-1.91660E+02 1.00000E+01
 -1       556 9.90000E+02-4.27720E+02 1.00000E+01
 -1       557 9.90000E+02-5.72020E+02 1.00000E+01
 -1       558 9.90000E+02-6.85240E+02 1.00000E+01
 -1       559-9.90000E+02-6.85980E+02 1.00000E+01
 -1       560-9.90000E+02-5.72020E+02 1.00000E+01
 -1       561-9.90000E+02-4.29200E+02 1.00000E+01
 -1       562-9.90000E+02-2.00540E+02 1.00000E+01
 -1       563-9.90000E+02 1.11000E+02 1.00000E+01
 -1       564-9.90000E+02 3.92940E+02 1.00000E+01
 -1       565-9.90000E+02 5.72760E+02 1.00000E+01
 -1       566-9.90000E+02 6.88200E+02 1.00000E+01
 -1       567 9.90000E+02 7.40000E+02 5.00000E+01
 -1       568-9.90000E+02 7.40000E+02 5.00000E+01
 -1       569 6.30996E-01 1.50000E+02 1.00000E+02
 -1       570 5.63100E+00 1.50000E+02 8.52000E+01
 -1       571 5.63100E+00 1.50000E+02 5.13500E+01
 -1       572 5.63100E+00 1.50000E+02 1.61500E+01
 -1       573 6.30996E-01 1.50000E+02-3.10777E-14
 -1       574-4.36900E+00 1.50000E+02 1.62000E+01
 -1       575-4.36900E+00 1.50000E+02 5.14500E+01
 -1       576-4.36900E+00 1.50000E+02 8.52500E+01
 -1       577-4.36900E+00 6.33000E+02-1.38325E-13
 -1       578-4.36900E+00 5.90750E+02-1.28944E-13
 -1       579-4.36900E+00 5.31750E+02-1.15843E-13
 -1       580-4.36900E+00 4.48250E+02-9.73025E-14
 -1       581-4.36900E+00 3.47000E+02-7.48205E-14
 -1       582-4.36900E+00 2.60250E+02-5.55581E-14
 -1       583-4.36900E+00 2.02750E+02-4.27905E-14
 -1       584-4.36900E+00 1.65250E+02-3.44639E-14
 -1       585-4.36900E+00 6.32750E+02 1.00000E+02
 -1       586-4.36900E+00 5.90000E+02 1.00000E+02
 -1       587-4.36900E+00 5.30000E+02 1.00000E+02
 -1       588-4.36900E+00 4.45000E+02 1.00000E+02
 -1       589-4.36900E+00 3.46250E+02 1.00000E+02
 -1       590-4.36900E+00 2.62000E+02 1.00000E+02
 -1       591-4.36900E+00 2.03500E+02 1.00000E+02
 -1       592-4.36900E+00 1.65500E+02 1.00000E+02
 -1       593-4.36900E+00 6.50000E+02 1.62000E+01
 -1       594-4.36900E+00 6.50000E+02 5.14500E+01
 -1       595-4.36900E+00 6.50000E+02 8.52500E+01
 -1       596 5.63100E+00 6.32750E+02 1.00000E+02
 -1       597 5.63100E+00 5.90000E+02 1.00000E+02
 -1       598 5.63100E+00 5.30000E+02 1.00000E+02
 -1       599 5.63100E+00 4.45000E+02 1.00000E+02
 -1       600 5.63100E+00 3.46250E+02 1.00000E+02
 -1       601 5.63100E+00 2.62000E+02 1.00000E+02
 -1       602 5.63100E+00 2.03500E+02 1.00000E+02
 -1       603 5.63100E+00 1.65500E+02 1.00000E+02
 -1       604 5.63100E+00 6.33000E+02-1.38330E-13
 -1       605 5.63100E+00 5.90750E+02-1.28948E-13
 -1       606 5.63100E+00 5.31750E+02-1.15848E-13
 -1       607 5.63100E+00 4.48250E+02-9.73068E-14
 -1       608 5.63100E+00 3.47000E+02-7.48248E-14
 -1       609 5.63100E+00 2.60250E+02-5.55624E-14
 -1       610 5.63100E+00 2.02750E+02-4.27948E-14
 -1       611 5.63100E+00 1.65250E+02-3.44682E-14
 -1       612 5.63100E+00 6.50000E+02 8.52000E+01
 -1       613 5.63100E+00 6.50000E+02 5.13500E+01
 -1       614 5.63100E+00 6.50000E+02 1.61500E+01
 -1       615 6.30996E-01 6.50000E+02 1.00000E+02
 -1       616-8.38649E+02 6.50000E+02 1.00000E+02
 -1       617-6.94005E+02 6.50000E+02 1.00000E+02
 -1       618-5.13983E+02 6.50000E+02 1.00000E+02
 -1       619-3.45604E+02 6.50000E+02 1.00000E+02
 -1       620-2.23351E+02 6.50000E+02 1.00000E+02
 -1       621-1.34683E+02 6.50000E+02 1.00000E+02
 -1       622-7.01979E+01 6.50000E+02 1.00000E+02
 -1       623-2.40729E+01 6.50000E+02 1.00000E+02
 -1       624-2.63120E+01 6.50000E+02 0.00000E+00
 -1       625-7.87064E+01 6.50000E+02 0.00000E+00
 -1       626-1.51252E+02 6.50000E+02 0.00000E+00
 -1       627-2.58728E+02 6.50000E+02 0.00000E+00
 -1       628-4.12329E+02 6.50000E+02 0.00000E+00
 -1       629-6.18772E+02 6.50000E+02 0.00000E+00
 -1       630-8.18498E+02 6.50000E+02 0.00000E+00
 -1       631-9.00000E+02 6.50000E+02 5.00000E+01
 -1       632 6.30996E-01 6.50000E+02-1.42100E-13
 -1       633 2.39656E+01 6.50000E+02 1.00000E+02
 -1       634 7.58390E+01 6.50000E+02 1.00000E+02
 -1       635 1.68853E+02 6.50000E+02 1.00000E+02
 -1       636 3.16424E+02 6.50000E+02 1.00000E+02
 -1       637 5.17657E+02 6.50000E+02 1.00000E+02
 -1       638 7.09499E+02 6.50000E+02 1.00000E+02
 -1       639 8.44102E+02 6.50000E+02 1.00000E+02
 -1       640 9.00000E+02 6.50000E+02 5.00000E+01
 -1       641 8.48127E+02 6.50000E+02 0.00000E+00
 -1       642 7.15760E+02 6.50000E+02 0.00000E+00
 -1       643 5.36439E+02 6.50000E+02 0.00000E+00
 -1       644 3.70534E+02 6.50000E+02 0.00000E+00
 -1       645 2.53371E+02 6.50000E+02 0.00000E+00
 -1       646 1.67512E+02 6.50000E+02 0.00000E+00
 -1       647 1.05353E+02 6.50000E+02 0.00000E+00
 -1       648 5.79516E+01 6.50000E+02 0.00000E+00
 -1       649 2.12825E+01 6.50000E+02 0.00000E+00
 -1       650-9.00000E+02-5.96050E+02 1.00000E+02
 -1       651-9.00000E+02-4.69950E+02 1.00000E+02
 -1       652-9.00000E+02-2.89250E+02 1.00000E+02
 -1       653-9.00000E+02-2.53500E+01 1.00000E+02
 -1       654-9.00000E+02 2.59350E+02 1.00000E+02
 -1       655-9.00000E+02 4.71250E+02 1.00000E+02
 -1       656-9.00000E+02 6.01900E+02 1.00000E+02
 -1       657-9.00000E+02 5.85000E+02 0.00000E+00
 -1       658-9.00000E+02 4.02350E+02 0.00000E+00
 -1       659-9.00000E+02 1.17000E+02 0.00000E+00
 -1       660-9.00000E+02-2.04100E+02 0.00000E+00
 -1       661-9.00000E+02-4.43950E+02 0.00000E+00
 -1       662-9.00000E+02-5.90200E+02 0.00000E+00
 -1       663-9.00000E+02-6.50000E+02 5.00000E+01
 -1       664 8.44200E+02-6.50000E+02 1.00000E+02
 -1       665 7.11900E+02-6.50000E+02 1.00000E+02
 -1       666 5.18400E+02-6.50000E+02 1.00000E+02
 -1       667 2.25900E+02-6.50000E+02 1.00000E+02
 -1       668-1.43100E+02-6.50000E+02 1.00000E+02
 -1       669-4.64400E+02-6.50000E+02 1.00000E+02
 -1       670-6.82200E+02-6.50000E+02 1.00000E+02
 -1       671-8.36100E+02-6.50000E+02 1.00000E+02
 -1       672-8.28900E+02-6.50000E+02 0.00000E+00
 -1       673-6.51600E+02-6.50000E+02 0.00000E+00
 -1       674-4.19400E+02-6.50000E+02 0.00000E+00
 -1       675-1.14300E+02-6.50000E+02 0.00000E+00
 -1       676 2.48400E+02-6.50000E+02 0.00000E+00
 -1       677 5.37300E+02-6.50000E+02 0.00000E+00
 -1       678 7.20900E+02-6.50000E+02 0.00000E+00
 -1       679 8.49600E+02-6.50000E+02 0.00000E+00
 -1       680 9.00000E+02-6.50000E+02 5.00000E+01
 -1       681 9.00000E+02 6.00600E+02 1.00000E+02
 -1       682 9.00000E+02 4.68650E+02 1.00000E+02
 -1       683 9.00000E+02 2.55450E+02 1.00000E+02
 -1       684 9.00000E+02-3.05500E+01 1.00000E+02
 -1       685 9.00000E+02-2.93150E+02 1.00000E+02
 -1       686 9.00000E+02-4.72550E+02 1.00000E+02
 -1       687 9.00000E+02-5.97350E+02 1.00000E+02
 -1       688 9.00000E+02-5.89550E+02 0.00000E+00
 -1       689 9.00000E+02-4.42000E+02 0.00000E+00
 -1       690 9.00000E+02-2.00200E+02 0.00000E+00
 -1       691 9.00000E+02 1.21550E+02 0.00000E+00
 -1       692 9.00000E+02 4.04950E+02 0.00000E+00
 -1       693 9.00000E+02 5.85650E+02 0.00000E+00
 -1       694 1.00000E+03-7.50000E+02 5.00000E+01
 -1       695-1.00000E+03-7.50000E+02 5.00000E+01
 -1       696 9.44000E+02-7.50000E+02 0.00000E+00
 -1       697 8.33000E+02-7.50000E+02 0.00000E+00
 -1       698 7.04000E+02-7.50000E+02 0.00000E+00
 -1       699 5.21000E+02-7.50000E+02 0.00000E+00
 -1       700 2.24000E+02-7.50000E+02 0.00000E+00
 -1       701-1.48000E+02-7.50000E+02 0.00000E+00
 -1       702-4.59000E+02-7.50000E+02 0.00000E+00
 -1       703-6.74000E+02-7.50000E+02 0.00000E+00
 -1       704-8.26000E+02-7.50000E+02 0.00000E+00
 -1       705-9.45000E+02-7.50000E+02 0.00000E+00
 -1       706 9.55000E+02-7.50000E+02 1.00000E+02
 -1       707 8.43000E+02-7.50000E+02 1.00000E+02
 -1       708 6.77000E+02-7.50000E+02 1.00000E+02
 -1       709 4.45000E+02-7.50000E+02 1.00000E+02
 -1       710 1.32000E+02-7.50000E+02 1.00000E+02
 -1       711-2.20000E+02-7.50000E+02 1.00000E+02
 -1       712-5.11000E+02-7.50000E+02 1.00000E+02
 -1       713-7.11000E+02-7.50000E+02 1.00000E+02
 -1       714-8.52000E+02-7.50000E+02 1.00000E+02
 -1       715-9.56000E+02-7.50000E+02 1.00000E+02
 -1       716-9.53000E+02 7.50000E+02 1.00000E+02
 -1       717-8.43000E+02 7.50000E+02 1.00000E+02
 -1       718-6.95000E+02 7.50000E+02 1.00000E+02
 -1       719-5.07000E+02 7.50000E+02 1.00000E+02
 -1       720-3.33000E+02 7.50000E+02 1.00000E+02
 -1       721-2.02000E+02 7.50000E+02 1.00000E+02
 -1       722-1.01000E+02 7.50000E+02 1.00000E+02
 -1       723-2.40000E+01 7.50000E+02 1.00000E+02
 -1       724 5.60000E+01 7.50000E+02 1.00000E+02
 -1       725 1.58000E+02 7.50000E+02 1.00000E+02
 -1       726 2.91000E+02 7.50000E+02 1.00000E+02
 -1       727 4.72000E+02 7.50000E+02 1.00000E+02
 -1       728 6.74000E+02 7.50000E+02 1.00000E+02
 -1       729 8.40000E+02 7.50000E+02 1.00000E+02
 -1       730 9.55000E+02 7.50000E+02 1.00000E+02
 -1       731-1.00000E+03-6.92250E+02 1.00000E+02
 -1       732-1.00000E+03-5.55000E+02 1.00000E+02
 -1       733-1.00000E+03-3.59250E+02 1.00000E+02
 -1       734-1.00000E+03-8.77500E+01 1.00000E+02
 -1       735-1.00000E+03 2.09250E+02 1.00000E+02
 -1       736-1.00000E+03 4.36500E+02 1.00000E+02
 -1       737-1.00000E+03 5.84250E+02 1.00000E+02
 -1       738-1.00000E+03 6.98250E+02 1.00000E+02
 -1       739 1.00000E+03 6.94500E+02 1.00000E+02
 -1       740 1.00000E+03 5.64750E+02 1.00000E+02
 -1       741 1.00000E+03 3.84750E+02 1.00000E+02
 -1       742 1.00000E+03 1.41750E+02 1.00000E+02
 -1       743 1.00000E+03-1.31250E+02 1.00000E+02
 -1       744 1.00000E+03-3.69750E+02 1.00000E+02
 -1       745 1.00000E+03-5.45250E+02 1.00000E+02
 -1       746 1.00000E+03-6.84000E+02 1.00000E+02
 -1       747-9.42000E+02 7.50000E+02 0.00000E+00
 -1       748-8.15000E+02 7.50000E+02 0.00000E+00
 -1       749-6.52000E+02 7.50000E+02 0.00000E+00
 -1       750-4.58000E+02 7.50000E+02 0.00000E+00
 -1       751-2.91000E+02 7.50000E+02 0.00000E+00
 -1       752-1.68000E+02 7.50000E+02 0.00000E+00
 -1       753-7.30000E+01 7.50000E+02 0.00000E+00
 -1       754 2.00000E+00 7.50000E+02 0.00000E+00
 -1       755 7.90000E+01 7.50000E+02 0.00000E+00
 -1       756 1.79000E+02 7.50000E+02 0.00000E+00
 -1       757 3.21000E+02 7.50000E+02 0.00000E+00
 -1       758 5.06000E+02 7.50000E+02 0.00000E+00
 -1       759 6.88000E+02 7.50000E+02 0.00000E+00
 -1       760 8.27000E+02 7.50000E+02 0.00000E+00
 -1       761 9.43000E+02 7.50000E+02 0.00000E+00
 -1       762-1.00000E+03-6.93000E+02 0.00000E+00
 -1       763-1.00000E+03-5.76000E+02 0.00000E+00
 -1       764-1.00000E+03-4.35000E+02 0.00000E+00
 -1       765-1.00000E+03-2.13750E+02 0.00000E+00
 -1       766-1.00000E+03 9.60000E+01 0.00000E+00
 -1       767-1.00000E+03 3.82500E+02 0.00000E+00
 -1       768-1.00000E+03 5.67000E+02 0.00000E+00
 -1       769-1.00000E+03 6.92250E+02 0.00000E+00
 -1       770 1.00000E+03 6.93000E+02 0.00000E+00
 -1       771 1.00000E+03 5.61000E+02 0.00000E+00
 -1       772 1.00000E+03 3.77250E+02 0.00000E+00
 -1       773 1.00000E+03 1.21500E+02 0.00000E+00
 -1       774 1.00000E+03-1.72500E+02 0.00000E+00
 -1       775 1.00000E+03-4.12500E+02 0.00000E+00
 -1       776 1.00000E+03-5.74500E+02 0.00000E+00
 -1       777 1.00000E+03-6.96750E+02 0.00000E+00
 -1       778 1.00000E+03 7.50000E+02 5.00000E+01
 -1       779-1.00000E+03 7.50000E+02 5.00000E+01
 -1       780-8.51760E+02 6.60000E+02 5.00000E+01
 -1       781 8.63590E+02 6.60000E+02 5.00000E+01
 -1       782-7.81690E+02 6.60000E+02 5.00000E+01
 -1       783-4.88670E+02 6.60000E+02 5.00000E+01
 -1       784-3.96760E+02 6.60000E+02 5.00000E+01
 -1       785-3.21230E+02 6.60000E+02 5.00000E+01
 -1       786-2.53890E+02 6.60000E+02 5.00000E+01
 -1       787-2.02020E+02 6.60000E+02 5.00000E+01
 -1       788-1.51060E+02 6.60000E+02 5.00000E+01
 -1       789 7.73500E+00 6.60000E+02 2.64861E+01
 -1       790 3.04850E+01 6.60000E+02 2.64861E+01
 -1       791 1.31040E+02 6.60000E+02 5.00000E+01
 -1       792 1.72900E+02 6.60000E+02 5.00000E+01
 -1       793 2.36600E+02 6.60000E+02 5.00000E+01
 -1       794 2.93020E+02 6.60000E+02 5.00000E+01
 -1       795 8.13540E+02 6.60000E+02 5.00000E+01
 -1       796-1.11930E+02 6.60000E+02 5.00000E+01
 -1       797-1.59250E+01 6.60000E+02 7.35139E+01
 -1       798-3.68550E+01 6.60000E+02 7.35139E+01
 -1       799 2.13850E+01 6.60000E+02 6.64861E+01
 -1       800 6.82500E+00 6.60000E+02 6.64861E+01
 -1       801 4.41350E+01 6.60000E+02 6.64861E+01
 -1       802 8.64500E+01 6.60000E+02 5.00000E+01
 -1       803 6.14250E+01 6.60000E+02 2.64861E+01
 -1       804-5.86950E+02 6.60000E+02 5.00000E+01
 -1       805-8.00800E+01 6.60000E+02 5.00000E+01
 -1       806-4.23150E+01 6.60000E+02 3.35139E+01
 -1       807-1.50150E+01 6.60000E+02 3.35139E+01
 -1       808 3.64910E+02 6.60000E+02 5.00000E+01
 -1       809 7.46200E+02 6.60000E+02 5.00000E+01
 -1       810-3.64000E+00 6.60000E+02 5.00000E+01
 -1       811 4.61370E+02 6.60000E+02 5.00000E+01
 -1       812 6.67030E+02 6.60000E+02 5.00000E+01
 -1       813-7.00700E+02 6.60000E+02 5.00000E+01
 -1       814-6.41550E+01 6.60000E+02 7.35139E+01
 -1       815 5.68750E+02 6.60000E+02 5.00000E+01
 -1       816 9.10000E+02 6.14460E+02 5.00000E+01
 -1       817 9.10000E+02-6.14460E+02 5.00000E+01
 -1       818 9.10000E+02-5.61660E+02 5.00000E+01
 -1       819 9.10000E+02-4.95660E+02 5.00000E+01
 -1       820 9.10000E+02 5.65620E+02 5.00000E+01
 -1       821 9.10000E+02-4.23720E+02 5.00000E+01
 -1       822 9.10000E+02 4.83120E+02 5.00000E+01
 -1       823 9.10000E+02 3.91380E+02 5.00000E+01
 -1       824 9.10000E+02-3.23400E+02 5.00000E+01
 -1       825 9.10000E+02-2.13840E+02 5.00000E+01
 -1       826 9.10000E+02 2.58060E+02 5.00000E+01
 -1       827 9.10000E+02 1.25400E+02 5.00000E+01
 -1       828 9.10000E+02 5.21795E+01 8.00136E+01
 -1       829 9.10000E+02 4.68995E+01 4.00136E+01
 -1       830 9.10000E+02-3.56400E+01 5.00000E+01
 -1       831 9.10000E+02-1.08860E+02 8.00136E+01
 -1       832 8.63590E+02-6.60000E+02 5.00000E+01
 -1       833-8.56310E+02-6.60000E+02 5.00000E+01
 -1       834-7.92610E+02-6.60000E+02 5.00000E+01
 -1       835 8.14450E+02-6.60000E+02 5.00000E+01
 -1       836 7.50750E+02-6.60000E+02 5.00000E+01
 -1       837 6.76130E+02-6.60000E+02 5.00000E+01
 -1       838-6.06970E+02-6.60000E+02 5.00000E+01
 -1       839-7.16170E+02-6.60000E+02 5.00000E+01
 -1       840 5.86950E+02-6.60000E+02 5.00000E+01
 -1       841-5.05960E+02-6.60000E+02 5.00000E+01
 -1       842 4.81390E+02-6.60000E+02 5.00000E+01
 -1       843-3.74010E+02-6.60000E+02 5.00000E+01
 -1       844 3.41250E+02-6.60000E+02 5.00000E+01
 -1       845-2.26590E+02-6.60000E+02 5.00000E+01
 -1       846 1.49240E+02-6.60000E+02 5.00000E+01
 -1       847-4.00400E+01-6.60000E+02 5.00000E+01
 -1       848-9.10000E+02-6.13800E+02 5.00000E+01
 -1       849-9.10000E+02 6.15780E+02 5.00000E+01
 -1       850-9.10000E+02 5.67600E+02 5.00000E+01
 -1       851-9.10000E+02-5.60340E+02 5.00000E+01
 -1       852-9.10000E+02-4.94340E+02 5.00000E+01
 -1       853-9.10000E+02-4.21740E+02 5.00000E+01
 -1       854-9.10000E+02-3.20100E+02 5.00000E+01
 -1       855-9.10000E+02 3.94680E+02 5.00000E+01
 -1       856-9.10000E+02 4.85760E+02 5.00000E+01
 -1       857-9.10000E+02-2.09220E+02 5.00000E+01
 -1       858-9.10000E+02 2.62680E+02 5.00000E+01
 -1       859-9.10000E+02 1.30680E+02 5.00000E+01
 -1       860-9.10000E+02-3.03600E+01 5.00000E+01
 -1       861 9.46440E+02-7.40000E+02 5.00000E+01
 -1       862-9.46440E+02-7.40000E+02 5.00000E+01
 -1       863 9.01890E+02-7.40000E+02 5.00000E+01
 -1       864 8.46450E+02-7.40000E+02 5.00000E+01
 -1       865 7.04880E+02-7.40000E+02 5.00000E+01
 -1       866 7.78140E+02-7.40000E+02 5.00000E+01
 -1       867-8.41500E+02-7.40000E+02 5.00000E+01
 -1       868-7.77150E+02-7.40000E+02 5.00000E+01
 -1       869-9.01890E+02-7.40000E+02 5.00000E+01
 -1       870 6.06870E+02-7.40000E+02 5.00000E+01
 -1       871-6.96960E+02-7.40000E+02 5.00000E+01
 -1       872 5.00940E+02-7.40000E+02 5.00000E+01
 -1       873-6.08850E+02-7.40000E+02 5.00000E+01
 -1       874 3.70260E+02-7.40000E+02 5.00000E+01
 -1       875-4.90050E+02-7.40000E+02 5.00000E+01
 -1       876-3.59370E+02-7.40000E+02 5.00000E+01
 -1       877 1.75230E+02-7.40000E+02 5.00000E+01
 -1       878-1.89090E+02-7.40000E+02 5.00000E+01
 -1       879 5.68434E-14-7.40000E+02 5.00000E+01
 -1       880-9.02480E+02 7.00000E+02 9.00000E+01
 -1       881-9.50000E+02 7.00000E+02 9.00000E+01
 -1       882-7.79890E+02 7.00000E+02 9.00000E+01
 -1       883-8.44240E+02 7.00000E+02 9.00000E+01
 -1       884-2.69670E+02 7.00000E+02 9.00000E+01
 -1       885-3.37980E+02 7.00000E+02 9.00000E+01
 -1       886-1.58400E+02 7.00000E+02 9.00000E+01
 -1       887-2.17800E+02 7.00000E+02 9.00000E+01
 -1       888 1.85100E+02 7.00000E+02 9.00000E+01
 -1       889 1.28670E+02 7.00000E+02 9.00000E+01
 -1       890 3.22060E+02 7.00000E+02 9.00000E+01
 -1       891 2.48800E+02 7.00000E+02 9.00000E+01
 -1       892 8.55400E+02 7.00000E+02 9.00000E+01
 -1       893 7.84120E+02 7.00000E+02 9.00000E+01
 -1       894 9.50000E+02 7.00000E+02 9.00000E+01
 -1       895 9.05450E+02 7.00000E+02 9.00000E+01
 -1       896 9.50000E+02 6.50420E+02 9.00000E+01
 -1       897 9.50000E+02 5.45340E+02 9.00000E+01
 -1       898 9.50000E+02 6.01580E+02 9.00000E+01
 -1       899 9.50000E+02 3.81440E+02 9.00000E+01
 -1       900 9.50000E+02 4.62840E+02 9.00000E+01
 -1       901 9.50000E+02-4.68700E+02 9.00000E+01
 -1       902 9.50000E+02-3.97660E+02 9.00000E+01
 -1       903 9.50000E+02-5.94660E+02 9.00000E+01
 -1       904 9.50000E+02-5.40640E+02 9.00000E+01
 -1       905 9.50000E+02-7.00000E+02 9.00000E+01
 -1       906 9.50000E+02-6.47460E+02 9.00000E+01
 -1       907 9.06440E+02-7.00000E+02 9.00000E+01
 -1       908-8.51760E+02-7.00000E+02 9.00000E+01
 -1       909-7.91370E+02-7.00000E+02 9.00000E+01
 -1       910-9.50000E+02-7.00000E+02 9.00000E+01
 -1       911-9.05450E+02-7.00000E+02 9.00000E+01
 -1       912-9.50000E+02-6.41540E+02 9.00000E+01
 -1       913-9.50000E+02 4.56020E+02 9.00000E+01
 -1       914-9.50000E+02 3.73140E+02 9.00000E+01
 -1       915-9.50000E+02 6.00020E+02 9.00000E+01
 -1       916-9.50000E+02 5.37860E+02 9.00000E+01
 -1       917-9.50000E+02 6.48200E+02 9.00000E+01
 -1       918-9.50000E+02-5.88080E+02 9.00000E+01
 -1       919-9.50000E+02-5.08900E+02 9.00000E+01
 -1       920-9.50000E+02-4.36300E+02 9.00000E+01
 -1       921 8.57300E+02-7.00000E+02 9.00000E+01
 -1       922 7.88990E+02-7.00000E+02 9.00000E+01
 -1       923 7.25290E+02-7.00000E+02 9.00000E+01
 -1       924 6.27280E+02-7.00000E+02 9.00000E+01
 -1       925 5.38100E+02-7.00000E+02 9.00000E+01
 -1       926-4.13510E+02 7.00000E+02 9.00000E+01
 -1       927-1.19270E+02 7.00000E+02 9.00000E+01
 -1       928-3.68550E+01 6.76486E+02 9.00000E+01
 -1       929-1.59250E+01 6.76486E+02 9.00000E+01
 -1       930-1.36500E+00 6.76486E+02 9.00000E+01
 -1       931 1.31950E+01 6.76486E+02 9.00000E+01
 -1       932-1.18300E+01 6.92972E+02 9.00000E+01
 -1       933 3.50350E+01 6.76486E+02 9.00000E+01
 -1       934 5.77850E+01 6.76486E+02 9.00000E+01
 -1       935 8.40800E+01 7.00000E+02 9.00000E+01
 -1       936 7.16780E+02 7.00000E+02 9.00000E+01
 -1       937-6.98900E+02 7.00000E+02 9.00000E+01
 -1       938-7.14930E+02-7.00000E+02 9.00000E+01
 -1       939 6.21740E+02 7.00000E+02 9.00000E+01
 -1       940-5.11520E+02 7.00000E+02 9.00000E+01
 -1       941-6.09800E+02 7.00000E+02 9.00000E+01
 -1       942-7.25500E+00 7.16486E+02 9.00000E+01
 -1       943-4.19050E+01 7.16486E+02 9.00000E+01
 -1       944 5.23460E+02 7.00000E+02 9.00000E+01
 -1       945 4.18520E+02 7.00000E+02 9.00000E+01
 -1       946-6.34740E+02-7.00000E+02 9.00000E+01
 -1       947-6.34950E+01 6.80000E+02 9.00000E+01
 -1       948-5.30300E+01 6.96486E+02 9.00000E+01
 -1       949-6.85450E+01 7.20000E+02 9.00000E+01
 -1       950-9.07950E+01 6.80000E+02 9.00000E+01
 -1       951 2.45700E+01 6.92972E+02 9.00000E+01
 -1       952 7.27050E+01 7.16486E+02 9.00000E+01
 -1       953 2.91450E+01 7.16486E+02 9.00000E+01
 -1       954-1.08145E+02 7.20000E+02 9.00000E+01
 -1       955 7.30500E+00 7.16486E+02 9.00000E+01
 -1       956 9.50000E+02-2.88100E+02 9.00000E+01
 -1       957 9.50000E+02-1.84500E+02 9.00000E+01
 -1       958-5.33730E+02-7.00000E+02 9.00000E+01
 -1       959-4.14930E+02-7.00000E+02 9.00000E+01
 -1       960-9.50000E+02-3.22340E+02 9.00000E+01
 -1       961-9.50000E+02-2.11460E+02 9.00000E+01
 -1       962 4.07420E+02-7.00000E+02 9.00000E+01
 -1       963-9.50000E+02 2.41140E+02 9.00000E+01
 -1       964 9.50000E+02 1.22320E+02 9.00000E+01
 -1       965 9.50000E+02 2.48120E+02 9.00000E+01
 -1       966-2.67510E+02-7.00000E+02 9.00000E+01
 -1       967-9.72300E+01-7.00000E+02 9.00000E+01
 -1       968 2.67280E+02-7.00000E+02 9.00000E+01
 -1       969-9.50000E+02-5.97600E+01 9.00000E+01
 -1       970-9.50000E+02 1.01280E+02 9.00000E+01
 -1       971 9.20500E+01-7.00000E+02 9.00000E+01
 -1       972 9.50000E+02-3.87200E+01 9.00000E+01
 -1       973-9.50000E+02 7.00000E+02 1.00000E+01
 -1       974-9.01490E+02 7.00000E+02 1.00000E+01
 -1       975-8.31420E+02 7.00000E+02 1.00000E+01
 -1       976-7.67070E+02 7.00000E+02 1.00000E+01
 -1       977-3.72320E+02 7.00000E+02 1.00000E+01
 -1       978-3.03020E+02 7.00000E+02 1.00000E+01
 -1       979-2.35680E+02 7.00000E+02 1.00000E+01
 -1       980-1.76280E+02 7.00000E+02 1.00000E+01
 -1       981-9.34700E+01 7.00000E+02 1.00000E+01
 -1       982-4.49600E+01 7.00000E+02 1.00000E+01
 -1       983 7.36500E+01 7.00000E+02 1.00000E+01
 -1       984 1.26120E+02 7.00000E+02 1.00000E+01
 -1       985 6.50180E+02 7.00000E+02 1.00000E+01
 -1       986 7.23440E+02 7.00000E+02 1.00000E+01
 -1       987 8.02610E+02 7.00000E+02 1.00000E+01
 -1       988 8.59040E+02 7.00000E+02 1.00000E+01
 -1       989 9.05450E+02 7.00000E+02 1.00000E+01
 -1       990 9.50000E+02 7.00000E+02 1.00000E+01
 -1       991 9.50000E+02 6.47460E+02 1.00000E+01
 -1       992 9.50000E+02-3.89400E+02 1.00000E+01
 -1       993 9.50000E+02-4.75240E+02 1.00000E+01
 -1       994 9.50000E+02-5.41240E+02 1.00000E+01
 -1       995 9.50000E+02-5.99700E+02 1.00000E+01
 -1       996 9.45450E+02-6.85240E+02 1.00000E+01
 -1       997 8.59040E+02-7.00000E+02 1.00000E+01
 -1       998 8.03600E+02-7.00000E+02 1.00000E+01
 -1       999 7.28980E+02-7.00000E+02 1.00000E+01
 -1      1000 6.55720E+02-7.00000E+02 1.00000E+01
 -1      1001-7.78390E+02-7.00000E+02 1.00000E+01
 -1      1002-8.42740E+02-7.00000E+02 1.00000E+01
 -1      1003-9.06440E+02-7.00000E+02 1.00000E+01
 -1      1004-9.50000E+02-7.00000E+02 1.00000E+01
 -1      1005-9.50000E+02-6.45980E+02 1.00000E+01
 -1      1006-9.50000E+02-5.99780E+02 1.00000E+01
 -1      1007-9.50000E+02-5.39840E+02 1.00000E+01
 -1      1008-9.50000E+02-4.73840E+02 1.00000E+01
 -1      1009-9.50000E+02-3.90960E+02 1.00000E+01
 -1      1010-9.50000E+02 5.40340E+02 1.00000E+01
 -1      1011-9.50000E+02 6.03980E+02 1.00000E+01
 -1      1012-9.50000E+02 6.48200E+02 1.00000E+01
 -1      1013-9.50000E+02 4.49260E+02 1.00000E+01
 -1      1014 9.50000E+02 6.01920E+02 1.00000E+01
 -1      1015 3.04850E+01 6.76486E+02 1.00000E+01
 -1      1016 7.73500E+00 6.76486E+02 1.00000E+01
 -1      1017 4.27100E+01 7.00000E+02 1.00000E+01
 -1      1018 1.67980E+02 7.00000E+02 1.00000E+01
 -1      1019 2.88750E+02 7.00000E+02 1.00000E+01
 -1      1020 2.32330E+02 7.00000E+02 1.00000E+01
 -1      1021 9.50000E+02 5.36800E+02 1.00000E+01
 -1      1022 9.50000E+02 4.45060E+02 1.00000E+01
 -1      1023-1.76600E+01 7.00000E+02 1.00000E+01
 -1      1024 3.72900E+02 7.00000E+02 1.00000E+01
 -1      1025 9.50000E+02-2.89080E+02 1.00000E+01
 -1      1026 9.50000E+02-6.45240E+02 1.00000E+01
 -1      1027-9.50000E+02 3.33080E+02 1.00000E+01
 -1      1028-9.50000E+02-2.89320E+02 1.00000E+01
 -1      1029-6.28500E+00 7.16486E+02 1.00000E+01
 -1      1030-4.64230E+02 7.00000E+02 1.00000E+01
 -1      1031-1.25320E+02 7.00000E+02 1.00000E+01
 -1      1032 4.44790E+02 7.00000E+02 1.00000E+01
 -1      1033-6.79950E+02 7.00000E+02 1.00000E+01
 -1      1034-5.66200E+02 7.00000E+02 1.00000E+01
 -1      1035 3.13350E+01 7.16486E+02 1.00000E+01
 -1      1036 5.42800E+02 7.00000E+02 1.00000E+01
 -1      1037 9.50000E+02 3.31100E+02 1.00000E+01
 -1      1038 9.05450E+02-7.00000E+02 1.00000E+01
 -1      1039 5.50160E+02-7.00000E+02 1.00000E+01
 -1      1040 4.44230E+02-7.00000E+02 1.00000E+01
 -1      1041-6.90280E+02-7.00000E+02 1.00000E+01
 -1      1042-9.50000E+02 2.01080E+02 1.00000E+01
 -1      1043-5.81080E+02-7.00000E+02 1.00000E+01
 -1      1044 9.50000E+02 1.98440E+02 1.00000E+01
 -1      1045 9.50000E+02 3.93400E+01 1.00000E+01
 -1      1046 9.50000E+02-1.38860E+02 1.00000E+01
 -1      1047-4.50400E+02-7.00000E+02 1.00000E+01
 -1      1048-9.50000E+02-1.43540E+02 1.00000E+01
 -1      1049-9.50000E+02 3.53200E+01 1.00000E+01
 -1      1050-3.18450E+02-7.00000E+02 1.00000E+01
 -1      1051 2.52220E+02-7.00000E+02 1.00000E+01
 -1      1052 5.71900E+01-7.00000E+02 1.00000E+01
 -1      1053-1.29360E+02-7.00000E+02 1.00000E+01
 -1      1054 9.90000E+02 6.90420E+02 5.00000E+01
 -1      1055 9.90000E+02-6.87460E+02 5.00000E+01
 -1      1056 9.90000E+02 6.37880E+02 5.00000E+01
 -1      1057 9.90000E+02 5.16520E+02 5.00000E+01
 -1      1058 9.90000E+02 5.81640E+02 5.00000E+01
 -1      1059 9.90000E+02-4.49180E+02 5.00000E+01
 -1      1060 9.90000E+02-3.63340E+02 5.00000E+01
 -1      1061 9.90000E+02-5.78680E+02 5.00000E+01
 -1      1062 9.90000E+02-5.20220E+02 5.00000E+01
 -1      1063 9.90000E+02-6.32700E+02 5.00000E+01
 -1      1064 9.90000E+02 4.35120E+02 5.00000E+01
 -1      1065 9.90000E+02-2.59740E+02 5.00000E+01
 -1      1066 9.90000E+02 3.21160E+02 5.00000E+01
 -1      1067 9.90000E+02 1.95360E+02 5.00000E+01
 -1      1068 9.90000E+02 3.62600E+01 5.00000E+01
 -1      1069 9.90000E+02-1.09520E+02 5.00000E+01
 -1      1070-9.90000E+02-6.85980E+02 5.00000E+01
 -1      1071-9.90000E+02 6.88200E+02 5.00000E+01
 -1      1072-9.90000E+02 6.36400E+02 5.00000E+01
 -1      1073-9.90000E+02-5.67580E+02 5.00000E+01
 -1      1074-9.90000E+02-6.27520E+02 5.00000E+01
 -1      1075-9.90000E+02-4.05520E+02 5.00000E+01
 -1      1076-9.90000E+02-4.88400E+02 5.00000E+01
 -1      1077-9.90000E+02 5.74240E+02 5.00000E+01
 -1      1078-9.90000E+02 5.10600E+02 5.00000E+01
 -1      1079-9.90000E+02-2.91560E+02 5.00000E+01
 -1      1080-9.90000E+02 4.27720E+02 5.00000E+01
 -1      1081-9.90000E+02 3.11540E+02 5.00000E+01
 -1      1082-9.90000E+02-1.45780E+02 5.00000E+01
 -1      1083-9.90000E+02 1.71680E+02 5.00000E+01
 -1      1084-9.90000E+02 5.92000E+00 5.00000E+01
 -1      1085-9.42480E+02 7.40000E+02 5.00000E+01
 -1      1086 9.45450E+02 7.40000E+02 5.00000E+01
 -1      1087-8.93970E+02 7.40000E+02 5.00000E+01
 -1      1088-7.65270E+02 7.40000E+02 5.00000E+01
 -1      1089-8.29620E+02 7.40000E+02 5.00000E+01
 -1      1090-2.51460E+02 7.40000E+02 5.00000E+01
 -1      1091-3.20760E+02 7.40000E+02 5.00000E+01
 -1      1092-1.32660E+02 7.40000E+02 5.00000E+01
 -1      1093-1.92060E+02 7.40000E+02 5.00000E+01
 -1      1094-4.45500E+01 7.40000E+02 5.00000E+01
 -1      1095-9.30600E+01 7.40000E+02 5.00000E+01
 -1      1096 2.77200E+01 7.40000E+02 5.00000E+01
 -1      1097-9.90000E+00 7.40000E+02 5.00000E+01
 -1      1098 1.23750E+02 7.40000E+02 5.00000E+01
 -1      1099 7.12800E+01 7.40000E+02 5.00000E+01
 -1      1100 2.44530E+02 7.40000E+02 5.00000E+01
 -1      1101 1.80180E+02 7.40000E+02 5.00000E+01
 -1      1102 4.01940E+02 7.40000E+02 5.00000E+01
 -1      1103 3.17790E+02 7.40000E+02 5.00000E+01
 -1      1104 7.73190E+02 7.40000E+02 5.00000E+01
 -1      1105 6.99930E+02 7.40000E+02 5.00000E+01
 -1      1106 9.00900E+02 7.40000E+02 5.00000E+01
 -1      1107 8.44470E+02 7.40000E+02 5.00000E+01
 -1      1108 6.04890E+02 7.40000E+02 5.00000E+01
 -1      1109-3.89070E+02 7.40000E+02 5.00000E+01
 -1      1110 5.06880E+02 7.40000E+02 5.00000E+01
 -1      1111-6.76170E+02 7.40000E+02 5.00000E+01
 -1      1112-5.89050E+02 7.40000E+02 5.00000E+01
 -1      1113-4.91040E+02 7.40000E+02 5.00000E+01
 -1      1114 6.30996E-01 1.50000E+02 8.52500E+01
 -1      1115 6.30996E-01 1.50000E+02 7.04500E+01
 -1      1116 6.30996E-01 1.50000E+02 1.61500E+01
 -1      1117 6.30996E-01 1.50000E+02 3.23500E+01
 -1      1118 6.30996E-01 1.50000E+02 5.14000E+01
 -1      1119-4.36900E+00 6.33000E+02 1.62000E+01
 -1      1120-4.36900E+00 5.78125E+02 2.34782E+01
 -1      1121-4.36900E+00 6.03375E+02 2.34782E+01
 -1      1122-4.36900E+00 5.10625E+02 2.34782E+01
 -1      1123-4.36900E+00 5.44375E+02 2.34782E+01
 -1      1124-4.36900E+00 5.57000E+02 4.69564E+01
 -1      1125-4.36900E+00 3.96500E+02 5.00000E+01
 -1      1126-4.36900E+00 4.46250E+02 5.00000E+01
 -1      1127-4.36900E+00 3.45000E+02 5.00000E+01
 -1      1128-4.36900E+00 2.25500E+02 5.00000E+01
 -1      1129-4.36900E+00 2.60750E+02 5.00000E+01
 -1      1130-4.36900E+00 1.65250E+02 1.62000E+01
 -1      1131-4.36900E+00 6.32750E+02 8.52500E+01
 -1      1132-4.36900E+00 6.03125E+02 7.34782E+01
 -1      1133-4.36900E+00 5.77625E+02 7.34782E+01
 -1      1134-4.36900E+00 5.43875E+02 7.34782E+01
 -1      1135-4.36900E+00 5.09375E+02 7.34782E+01
 -1      1136-4.36900E+00 1.65500E+02 8.52500E+01
 -1      1137-4.36900E+00 6.20375E+02 5.87282E+01
 -1      1138-4.36900E+00 1.69982E+02 6.09750E+01
 -1      1139-4.36900E+00 1.69982E+02 4.19250E+01
 -1      1140-4.36900E+00 6.20375E+02 3.96782E+01
 -1      1141-4.36900E+00 1.85232E+02 2.57250E+01
 -1      1142-4.36900E+00 1.85482E+02 7.57250E+01
 -1      1143-4.36900E+00 2.96750E+02 5.00000E+01
 -1      1144-4.36900E+00 2.07482E+02 2.57250E+01
 -1      1145-4.36900E+00 2.07982E+02 7.57250E+01
 -1      1146-4.36900E+00 4.96750E+02 5.00000E+01
 -1      1147 5.63100E+00 6.32750E+02 8.52000E+01
 -1      1148 5.63100E+00 5.77250E+02 7.65218E+01
 -1      1149 5.63100E+00 6.02750E+02 7.65218E+01
 -1      1150 5.63100E+00 5.08250E+02 7.65218E+01
 -1      1151 5.63100E+00 5.42750E+02 7.65218E+01
 -1      1152 5.63100E+00 5.55500E+02 5.30436E+01
 -1      1153 5.63100E+00 3.96500E+02 5.00000E+01
 -1      1154 5.63100E+00 4.47000E+02 5.00000E+01
 -1      1155 5.63100E+00 2.96750E+02 5.00000E+01
 -1      1156 5.63100E+00 3.45000E+02 5.00000E+01
 -1      1157 5.63100E+00 2.60750E+02 5.00000E+01
 -1      1158 5.63100E+00 1.92250E+02 8.35139E+01
 -1      1159 5.63100E+00 2.14750E+02 8.35139E+01
 -1      1160 5.63100E+00 1.65500E+02 8.52000E+01
 -1      1161 5.63100E+00 6.33000E+02 1.61500E+01
 -1      1162 5.63100E+00 6.03000E+02 2.65218E+01
 -1      1163 5.63100E+00 5.77750E+02 2.65218E+01
 -1      1164 5.63100E+00 5.43250E+02 2.65218E+01
 -1      1165 5.63100E+00 5.09500E+02 2.65218E+01
 -1      1166 5.63100E+00 2.13875E+02 1.64861E+01
 -1      1167 5.63100E+00 1.91625E+02 1.64861E+01
 -1      1168 5.63100E+00 1.65250E+02 1.61500E+01
 -1      1169 5.63100E+00 6.20000E+02 4.26718E+01
 -1      1170 5.63100E+00 6.20000E+02 6.17218E+01
 -1      1171 5.63100E+00 1.76750E+02 6.87139E+01
 -1      1172 5.63100E+00 1.76375E+02 3.26361E+01
 -1      1173 5.63100E+00 2.25500E+02 5.00000E+01
 -1      1174 5.63100E+00 1.76375E+02 5.16861E+01
 -1      1175 5.63100E+00 4.96750E+02 5.00000E+01
 -1      1176 5.63100E+00 2.03125E+02 5.00000E+01
 -1      1177 5.63100E+00 2.14375E+02 6.64861E+01
 -1      1178 6.30996E-01 1.65500E+02 1.00000E+02
 -1      1179 6.30996E-01 1.81000E+02 1.00000E+02
 -1      1180 6.30996E-01 6.32750E+02 1.00000E+02
 -1      1181 6.30996E-01 2.03500E+02 1.00000E+02
 -1      1182 6.30996E-01 6.15500E+02 1.00000E+02
 -1      1183 6.30996E-01 2.26000E+02 1.00000E+02
 -1      1184-1.86900E+00 6.05982E+02 1.00000E+02
 -1      1185 3.13100E+00 6.05982E+02 1.00000E+02
 -1      1186 3.13100E+00 2.39556E+02 1.00000E+02
 -1      1187-1.86900E+00 2.39556E+02 1.00000E+02
 -1      1188 6.30996E-01 5.64500E+02 1.00000E+02
 -1      1189 6.30996E-01 5.90000E+02 1.00000E+02
 -1      1190-1.86900E+00 5.50944E+02 1.00000E+02
 -1      1191 3.13100E+00 5.50944E+02 1.00000E+02
 -1      1192 6.30996E-01 4.95500E+02 1.00000E+02
 -1      1193 6.30996E-01 5.30000E+02 1.00000E+02
 -1      1194-1.86900E+00 4.73870E+02 1.00000E+02
 -1      1195 3.13100E+00 4.73870E+02 1.00000E+02
 -1      1196 6.30996E-01 2.62000E+02 1.00000E+02
 -1      1197 6.30996E-01 2.98000E+02 1.00000E+02
 -1      1198 3.13100E+00 5.80482E+02 1.00000E+02
 -1      1199 3.13100E+00 3.19630E+02 1.00000E+02
 -1      1200-1.86900E+00 3.19630E+02 1.00000E+02
 -1      1201 6.30996E-01 3.94500E+02 1.00000E+02
 -1      1202 6.30996E-01 4.45000E+02 1.00000E+02
 -1      1203 6.30996E-01 3.46250E+02 1.00000E+02
 -1      1204 3.13100E+00 5.16444E+02 1.00000E+02
 -1      1205 3.13100E+00 2.75556E+02 1.00000E+02
 -1      1206 3.13100E+00 4.23370E+02 1.00000E+02
 -1      1207 3.13100E+00 3.67880E+02 1.00000E+02
 -1      1208-8.38649E+02 6.50000E+02 5.00000E+01
 -1      1209-7.57147E+02 6.50000E+02 5.00000E+01
 -1      1210-6.73853E+02 6.50000E+02 5.00000E+01
 -1      1211-5.55630E+02 6.50000E+02 5.00000E+01
 -1      1212-4.58902E+02 6.50000E+02 5.00000E+01
 -1      1213-3.70682E+02 6.50000E+02 5.00000E+01
 -1      1214-2.99032E+02 6.50000E+02 5.00000E+01
 -1      1215-2.33651E+02 6.50000E+02 5.00000E+01
 -1      1216-1.83047E+02 6.50000E+02 5.00000E+01
 -1      1217-1.40953E+02 6.50000E+02 5.00000E+01
 -1      1218-1.02888E+02 6.50000E+02 5.00000E+01
 -1      1219-2.40729E+01 6.50000E+02 8.52500E+01
 -1      1220-2.63120E+01 6.50000E+02 1.62000E+01
 -1      1221-2.51924E+01 6.50000E+02 6.02500E+01
 -1      1222-2.51924E+01 6.50000E+02 4.12000E+01
 -1      1223-4.71354E+01 6.50000E+02 2.50000E+01
 -1      1224-4.48963E+01 6.50000E+02 7.50000E+01
 -1      1225-7.75868E+01 6.50000E+02 2.50000E+01
 -1      1226-7.13174E+01 6.50000E+02 7.50000E+01
 -1      1227 6.30996E-01 1.65250E+02-3.44660E-14
 -1      1228 6.30996E-01 1.80500E+02-3.78522E-14
 -1      1229 6.30996E-01 6.33000E+02-1.38327E-13
 -1      1230 6.30996E-01 2.02750E+02-4.27927E-14
 -1      1231 6.30996E-01 6.16000E+02-1.34553E-13
 -1      1232 6.30996E-01 2.25000E+02-4.77332E-14
 -1      1233 3.13100E+00 6.06482E+02-1.32439E-13
 -1      1234-1.86900E+00 6.06482E+02-1.32437E-13
 -1      1235-1.86900E+00 2.38556E+02-5.07410E-14
 -1      1236 3.13100E+00 2.38556E+02-5.07431E-14
 -1      1237 6.30996E-01 5.65500E+02-1.23339E-13
 -1      1238 6.30996E-01 5.90750E+02-1.28946E-13
 -1      1239 3.13100E+00 5.51944E+02-1.20329E-13
 -1      1240-1.86900E+00 5.51944E+02-1.20327E-13
 -1      1241 6.30996E-01 4.98000E+02-1.08351E-13
 -1      1242 6.30996E-01 5.31750E+02-1.15845E-13
 -1      1243 3.13100E+00 4.76370E+02-1.03549E-13
 -1      1244-1.86900E+00 4.76370E+02-1.03546E-13
 -1      1245 6.30996E-01 2.60250E+02-5.55603E-14
 -1      1246 6.30996E-01 2.95500E+02-6.33873E-14
 -1      1247-1.86900E+00 5.81232E+02-1.26830E-13
 -1      1248-1.86900E+00 3.17130E+02-6.81879E-14
 -1      1249 3.13100E+00 3.17130E+02-6.81901E-14
 -1      1250 6.30996E-01 3.98500E+02-8.62579E-14
 -1      1251 6.30996E-01 4.48250E+02-9.73046E-14
 -1      1252 3.13100E+00 3.68630E+02-7.96254E-14
 -1      1253-1.86900E+00 3.68630E+02-7.96232E-14
 -1      1254-1.86900E+00 5.18194E+02-1.12833E-13
 -1      1255-1.86900E+00 2.73806E+02-5.85681E-14
 -1      1256-1.86900E+00 4.26620E+02-9.24998E-14
 -1      1257 2.39656E+01 6.50000E+02 8.52000E+01
 -1      1258 5.90695E+01 6.50000E+02 7.66928E+01
 -1      1259 9.26084E+01 6.50000E+02 7.66928E+01
 -1      1260 1.56332E+02 6.50000E+02 5.00000E+01
 -1      1261 2.15808E+02 6.50000E+02 5.00000E+01
 -1      1262 6.33031E+02 6.50000E+02 5.00000E+01
 -1      1263 7.11735E+02 6.50000E+02 5.00000E+01
 -1      1264 7.92229E+02 6.50000E+02 5.00000E+01
 -1      1265 8.48127E+02 6.50000E+02 5.00000E+01
 -1      1266 4.21065E+02 6.50000E+02 5.00000E+01
 -1      1267 3.53988E+02 6.50000E+02 5.00000E+01
 -1      1268 2.65892E+02 6.50000E+02 5.00000E+01
 -1      1269 1.03788E+02 6.50000E+02 2.66928E+01
 -1      1270 7.74041E+01 6.50000E+02 2.66928E+01
 -1      1271 5.63864E+01 6.50000E+02 2.66928E+01
 -1      1272 2.12825E+01 6.50000E+02 1.61500E+01
 -1      1273 4.07350E+01 6.50000E+02 6.18928E+01
 -1      1274 4.07350E+01 6.50000E+02 4.28428E+01
 -1      1275 5.34203E+02 6.50000E+02 5.00000E+01
 -1      1276 1.20557E+02 6.50000E+02 5.00000E+01
 -1      1277-9.00000E+02-5.96050E+02 5.00000E+01
 -1      1278-9.00000E+02-5.36250E+02 5.00000E+01
 -1      1279-9.00000E+02-4.64100E+02 5.00000E+01
 -1      1280-9.00000E+02 4.54350E+02 5.00000E+01
 -1      1281-9.00000E+02 5.36900E+02 5.00000E+01
 -1      1282-9.00000E+02 6.01900E+02 5.00000E+01
 -1      1283-9.00000E+02-3.77650E+02 5.00000E+01
 -1      1284-9.00000E+02 3.36700E+02 5.00000E+01
 -1      1285-9.00000E+02-2.69100E+02 5.00000E+01
 -1      1286-9.00000E+02 2.07350E+02 5.00000E+01
 -1      1287-9.00000E+02 3.96500E+01 5.00000E+01
 -1      1288-9.00000E+02-1.15700E+02 5.00000E+01
 -1      1289 8.49600E+02-6.50000E+02 5.00000E+01
 -1      1290 7.93800E+02-6.50000E+02 5.00000E+01
 -1      1291 7.15500E+02-6.50000E+02 5.00000E+01
 -1      1292 6.39000E+02-6.50000E+02 5.00000E+01
 -1      1293-6.75000E+02-6.50000E+02 5.00000E+01
 -1      1294-7.65000E+02-6.50000E+02 5.00000E+01
 -1      1295-8.36100E+02-6.50000E+02 5.00000E+01
 -1      1296 5.33700E+02-6.50000E+02 5.00000E+01
 -1      1297 4.16700E+02-6.50000E+02 5.00000E+01
 -1      1298-5.68800E+02-6.50000E+02 5.00000E+01
 -1      1299-4.41000E+02-6.50000E+02 5.00000E+01
 -1      1300-3.15000E+02-6.50000E+02 5.00000E+01
 -1      1301 2.33100E+02-6.50000E+02 5.00000E+01
 -1      1302 5.76000E+01-6.50000E+02 5.00000E+01
 -1      1303-1.21500E+02-6.50000E+02 5.00000E+01
 -1      1304 9.00000E+02 6.00600E+02 5.00000E+01
 -1      1305 9.00000E+02 5.36250E+02 5.00000E+01
 -1      1306 9.00000E+02 4.53700E+02 5.00000E+01
 -1      1307 9.00000E+02-4.64750E+02 5.00000E+01
 -1      1308 9.00000E+02-5.36900E+02 5.00000E+01
 -1      1309 9.00000E+02-5.97350E+02 5.00000E+01
 -1      1310 9.00000E+02-3.77650E+02 5.00000E+01
 -1      1311 9.00000E+02 3.37350E+02 5.00000E+01
 -1      1312 9.00000E+02-2.70400E+02 5.00000E+01
 -1      1313 9.00000E+02 2.06700E+02 5.00000E+01
 -1      1314 9.00000E+02 3.96500E+01 5.00000E+01
 -1      1315 9.00000E+02-1.15700E+02 5.00000E+01
 -1      1316 9.55000E+02-7.50000E+02 5.00000E+01
 -1      1317-9.56000E+02-7.50000E+02 5.00000E+01
 -1      1318 8.99000E+02-7.50000E+02 5.00000E+01
 -1      1319 8.32000E+02-7.50000E+02 5.00000E+01
 -1      1320 7.77000E+02-7.50000E+02 5.00000E+01
 -1      1321 7.03000E+02-7.50000E+02 5.00000E+01
 -1      1322-6.08000E+02-7.50000E+02 5.00000E+01
 -1      1323-6.96000E+02-7.50000E+02 5.00000E+01
 -1      1324-7.77000E+02-7.50000E+02 5.00000E+01
 -1      1325-8.41000E+02-7.50000E+02 5.00000E+01
 -1      1326-9.01000E+02-7.50000E+02 5.00000E+01
 -1      1327 6.04000E+02-7.50000E+02 5.00000E+01
 -1      1328 4.95000E+02-7.50000E+02 5.00000E+01
 -1      1329-4.89000E+02-7.50000E+02 5.00000E+01
 -1      1330-3.62000E+02-7.50000E+02 5.00000E+01
 -1      1331 3.62000E+02-7.50000E+02 5.00000E+01
 -1      1332 1.74000E+02-7.50000E+02 5.00000E+01
 -1      1333-6.00000E+00-7.50000E+02 5.00000E+01
 -1      1334-1.90000E+02-7.50000E+02 5.00000E+01
 -1      1335-9.53000E+02 6.98250E+02 1.00000E+02
 -1      1336-9.03000E+02 7.00000E+02 1.00000E+02
 -1      1337-8.40000E+02 7.00000E+02 1.00000E+02
 -1      1338-3.38977E+02 7.00000E+02 1.00000E+02
 -1      1339-2.67977E+02 7.00000E+02 1.00000E+02
 -1      1340-2.17374E+02 7.00000E+02 1.00000E+02
 -1      1341-1.57374E+02 7.00000E+02 1.00000E+02
 -1      1342-1.19310E+02 7.00000E+02 1.00000E+02
 -1      1343-7.83095E+01 7.00000E+02 1.00000E+02
 -1      1344 1.04689E+02 7.00000E+02 1.00000E+02
 -1      1345 1.62689E+02 7.00000E+02 1.00000E+02
 -1      1346 2.22164E+02 7.00000E+02 1.00000E+02
 -1      1347 2.97164E+02 7.00000E+02 1.00000E+02
 -1      1348 6.04397E+02 7.00000E+02 1.00000E+02
 -1      1349 7.00397E+02 7.00000E+02 1.00000E+02
 -1      1350 7.79102E+02 7.00000E+02 1.00000E+02
 -1      1351 8.49102E+02 7.00000E+02 1.00000E+02
 -1      1352 9.55000E+02 6.94500E+02 1.00000E+02
 -1      1353-9.50000E+02-7.00000E+02 1.00000E+02
 -1      1354-9.50000E+02-6.42250E+02 1.00000E+02
 -1      1355-9.50000E+02 3.69850E+02 1.00000E+02
 -1      1356-9.50000E+02 4.55350E+02 1.00000E+02
 -1      1357-9.50000E+02 5.37900E+02 1.00000E+02
 -1      1358-9.50000E+02 6.00150E+02 1.00000E+02
 -1      1359-7.78649E+02 7.00000E+02 1.00000E+02
 -1      1360-9.50000E+02-5.88300E+02 1.00000E+02
 -1      1361 9.50000E+02 5.95100E+02 1.00000E+02
 -1      1362 9.50000E+02 5.20850E+02 1.00000E+02
 -1      1363 9.50000E+02 4.38300E+02 1.00000E+02
 -1      1364 9.50000E+02 3.32550E+02 1.00000E+02
 -1      1365 9.50000E+02-3.33700E+02 1.00000E+02
 -1      1366 9.50000E+02-4.36450E+02 1.00000E+02
 -1      1367 9.50000E+02-5.08600E+02 1.00000E+02
 -1      1368 9.50000E+02-5.81350E+02 1.00000E+02
 -1      1369 9.50000E+02-6.34000E+02 1.00000E+02
 -1      1370 9.50000E+02-7.00000E+02 1.00000E+02
 -1      1371 9.05000E+02-7.00000E+02 1.00000E+02
 -1      1372 8.49200E+02-7.00000E+02 1.00000E+02
 -1      1373 7.82200E+02-7.00000E+02 1.00000E+02
 -1      1374 7.05700E+02-7.00000E+02 1.00000E+02
 -1      1375 6.06700E+02-7.00000E+02 1.00000E+02
 -1      1376-7.01100E+02-7.00000E+02 1.00000E+02
 -1      1377-7.82100E+02-7.00000E+02 1.00000E+02
 -1      1378-9.06000E+02-7.00000E+02 1.00000E+02
 -1      1379-9.50000E+02-5.08800E+02 1.00000E+02
 -1      1380-4.10627E+02 7.00000E+02 1.00000E+02
 -1      1381-1.42209E+01 6.66486E+02 1.00000E+02
 -1      1382-3.39248E+01 6.66486E+02 1.00000E+02
 -1      1383 3.31328E+01 6.66486E+02 1.00000E+02
 -1      1384 1.47983E+01 6.66486E+02 1.00000E+02
 -1      1385 3.85260E+02 7.00000E+02 1.00000E+02
 -1      1386 9.50000E+02-2.26450E+02 1.00000E+02
 -1      1387-6.11100E+02-7.00000E+02 1.00000E+02
 -1      1388-8.46000E+02-7.00000E+02 1.00000E+02
 -1      1389-9.50000E+02-4.36650E+02 1.00000E+02
 -1      1390-9.50000E+02-3.20400E+02 1.00000E+02
 -1      1391-9.50000E+02 6.48250E+02 1.00000E+02
 -1      1392-6.93649E+02 7.00000E+02 1.00000E+02
 -1      1393-5.13627E+02 7.00000E+02 1.00000E+02
 -1      1394 4.91260E+02 7.00000E+02 1.00000E+02
 -1      1395-4.20364E+01 7.16486E+02 1.00000E+02
 -1      1396-6.03644E+00 7.16486E+02 1.00000E+02
 -1      1397 9.05000E+02 7.00000E+02 1.00000E+02
 -1      1398 9.50000E+02 6.44500E+02 1.00000E+02
 -1      1399-6.10356E+02 7.00000E+02 1.00000E+02
 -1      1400 9.50000E+02 2.01900E+02 1.00000E+02
 -1      1401-4.92100E+02-7.00000E+02 1.00000E+02
 -1      1402 4.89700E+02-7.00000E+02 1.00000E+02
 -1      1403 3.56700E+02-7.00000E+02 1.00000E+02
 -1      1404-9.50000E+02-2.11850E+02 1.00000E+02
 -1      1405 9.26084E+01 6.73307E+02 1.00000E+02
 -1      1406 5.90695E+01 6.73307E+02 1.00000E+02
 -1      1407-3.64300E+02-7.00000E+02 1.00000E+02
 -1      1408 9.50000E+02-9.07000E+01 1.00000E+02
 -1      1409 4.99023E+01 6.89793E+02 1.00000E+02
 -1      1410-6.03459E+01 6.66486E+02 1.00000E+02
 -1      1411 1.79828E+01 7.16486E+02 1.00000E+02
 -1      1412 6.19828E+01 7.16486E+02 1.00000E+02
 -1      1413-5.36626E-02 6.82972E+02 1.00000E+02
 -1      1414-9.50000E+02-5.66000E+01 1.00000E+02
 -1      1415-9.50000E+02 9.87500E+01 1.00000E+02
 -1      1416-9.50000E+02 2.40500E+02 1.00000E+02
 -1      1417 9.50000E+02 6.46500E+01 1.00000E+02
 -1      1418 3.13100E+00 6.62990E+02 1.00000E+02
 -1      1419-1.86900E+00 6.62990E+02 1.00000E+02
 -1      1420 8.79195E+01 7.23307E+02 1.00000E+02
 -1      1421 1.81200E+02-7.00000E+02 1.00000E+02
 -1      1422 1.20000E+00-7.00000E+02 1.00000E+02
 -1      1423-1.92300E+02-7.00000E+02 1.00000E+02
 -1      1424 1.22983E+01 6.79476E+02 1.00000E+02
 -1      1425-1.17209E+01 6.79476E+02 1.00000E+02
 -1      1426-8.92000E+02 7.00000E+02 0.00000E+00
 -1      1427-9.50000E+02 7.00000E+02 0.00000E+00
 -1      1428-7.41498E+02 7.00000E+02 0.00000E+00
 -1      1429-8.10498E+02 7.00000E+02 0.00000E+00
 -1      1430-4.29274E+02 7.00000E+02 0.00000E+00
 -1      1431-5.29274E+02 7.00000E+02 0.00000E+00
 -1      1432-2.74055E+02 7.00000E+02 0.00000E+00
 -1      1433-3.41055E+02 7.00000E+02 0.00000E+00
 -1      1434-1.52674E+02 7.00000E+02 0.00000E+00
 -1      1435-2.08674E+02 7.00000E+02 0.00000E+00
 -1      1436 2.20643E+02 7.00000E+02 0.00000E+00
 -1      1437 1.61643E+02 7.00000E+02 0.00000E+00
 -1      1438 7.01633E+02 7.00000E+02 0.00000E+00
 -1      1439 6.21633E+02 7.00000E+02 0.00000E+00
 -1      1440 8.41127E+02 7.00000E+02 0.00000E+00
 -1      1441 7.82127E+02 7.00000E+02 0.00000E+00
 -1      1442 9.50000E+02 7.00000E+02 0.00000E+00
 -1      1443 8.93000E+02 7.00000E+02 0.00000E+00
 -1      1444-9.50000E+02-6.43000E+02 0.00000E+00
 -1      1445-9.50000E+02-7.00000E+02 0.00000E+00
 -1      1446-9.50000E+02-5.23200E+02 0.00000E+00
 -1      1447-9.50000E+02-5.83200E+02 0.00000E+00
 -1      1448-9.50000E+02-3.55750E+02 0.00000E+00
 -1      1449-9.50000E+02-4.36750E+02 0.00000E+00
 -1      1450-9.50000E+02 5.77250E+02 0.00000E+00
 -1      1451-9.50000E+02 5.09750E+02 0.00000E+00
 -1      1452-9.50000E+02 6.42250E+02 0.00000E+00
 -1      1453 9.50000E+02 6.43000E+02 0.00000E+00
 -1      1454 9.50000E+02 5.03650E+02 0.00000E+00
 -1      1455 9.50000E+02 5.78650E+02 0.00000E+00
 -1      1456 9.50000E+02-4.30200E+02 0.00000E+00
 -1      1457 9.50000E+02-3.37200E+02 0.00000E+00
 -1      1458 9.50000E+02-5.86300E+02 0.00000E+00
 -1      1459 9.50000E+02-5.17300E+02 0.00000E+00
 -1      1460 9.50000E+02-7.00000E+02 0.00000E+00
 -1      1461 9.50000E+02-6.46750E+02 0.00000E+00
 -1      1462 8.94000E+02-7.00000E+02 0.00000E+00
 -1      1463 7.88600E+02-7.00000E+02 0.00000E+00
 -1      1464 8.43600E+02-7.00000E+02 0.00000E+00
 -1      1465 6.36300E+02-7.00000E+02 0.00000E+00
 -1      1466 7.10300E+02-7.00000E+02 0.00000E+00
 -1      1467-8.23900E+02-7.00000E+02 0.00000E+00
 -1      1468-7.59900E+02-7.00000E+02 0.00000E+00
 -1      1469-8.95000E+02-7.00000E+02 0.00000E+00
 -1      1470 3.53728E+02 7.00000E+02 0.00000E+00
 -1      1471 4.20806E+02 7.00000E+02 0.00000E+00
 -1      1472 2.70728E+02 7.00000E+02 0.00000E+00
 -1      1473 9.21612E+01 6.73478E+02 0.00000E+00
 -1      1474 1.18545E+02 6.73478E+02 0.00000E+00
 -1      1475 5.01259E+01 6.73478E+02 0.00000E+00
 -1      1476 7.11435E+01 6.73478E+02 0.00000E+00
 -1      1477 8.43355E+01 6.96956E+02 0.00000E+00
 -1      1478 1.88229E+01 6.73478E+02-7.10521E-14
 -1      1479 3.44744E+01 6.73478E+02 0.00000E+00
 -1      1480 4.76663E+01 6.96956E+02 0.00000E+00
 -1      1481-3.72834E+01 6.66486E+02 0.00000E+00
 -1      1482-1.53405E+01 6.66486E+02-7.10500E-14
 -1      1483-9.39321E+01 6.73478E+02 0.00000E+00
 -1      1484-6.34806E+01 6.73478E+02 0.00000E+00
 -1      1485-1.10579E+02 7.00000E+02 0.00000E+00
 -1      1486 5.22806E+02 7.00000E+02 0.00000E+00
 -1      1487-6.47498E+02 7.00000E+02 0.00000E+00
 -1      1488 1.25869E+02 7.00000E+02 0.00000E+00
 -1      1489 9.16589E+01 7.23478E+02 0.00000E+00
 -1      1490 5.06589E+01 7.23478E+02 0.00000E+00
 -1      1491 9.50000E+02 3.87300E+02 0.00000E+00
 -1      1492 9.50000E+02 2.78550E+02 0.00000E+00
 -1      1493-6.71900E+02-7.00000E+02 0.00000E+00
 -1      1494 4.22000E+02-7.00000E+02 0.00000E+00
 -1      1495 5.31000E+02-7.00000E+02 0.00000E+00
 -1      1496-5.65700E+02-7.00000E+02 0.00000E+00
 -1      1497-5.25092E+01 6.89964E+02 0.00000E+00
 -1      1498-5.63532E+01 7.23478E+02 0.00000E+00
 -1      1499-9.53532E+01 7.23478E+02 0.00000E+00
 -1      1500 2.00000E+01 7.19530E+02 0.00000E+00
 -1      1501-1.60000E+01 7.19530E+02 0.00000E+00
 -1      1502-9.50000E+02 3.92100E+02 0.00000E+00
 -1      1503-9.50000E+02 2.75100E+02 0.00000E+00
 -1      1504 9.50000E+02-1.82500E+02 0.00000E+00
 -1      1505-4.38700E+02-7.00000E+02 0.00000E+00
 -1      1506-3.12700E+02-7.00000E+02 0.00000E+00
 -1      1507-1.21560E+01 6.86016E+02 0.00000E+00
 -1      1508-1.18450E+00 6.69530E+02-7.10500E-14
 -1      1509 3.50074E+01 7.23478E+02 0.00000E+00
 -1      1510-3.01560E+01 7.16486E+02 0.00000E+00
 -1      1511 1.12677E+02 7.23478E+02 0.00000E+00
 -1      1512 9.50000E+02-3.55000E+01 0.00000E+00
 -1      1513-9.50000E+02-2.15500E+02 0.00000E+00
 -1      1514-9.50000E+02 1.07400E+02 0.00000E+00
 -1      1515-9.50000E+02-6.21000E+01 0.00000E+00
 -1      1516 9.50000E+02 1.11500E+02 0.00000E+00
 -1      1517 5.04000E+01-7.00000E+02 0.00000E+00
 -1      1518 2.38400E+02-7.00000E+02 0.00000E+00
 -1      1519-1.28700E+02-7.00000E+02 0.00000E+00
 -1      1520 1.70074E+01 6.93008E+02 0.00000E+00
 -1      1521 1.38229E+01 6.73478E+02-7.10500E-14
 -1      1522 1.00000E+03 6.94500E+02 5.00000E+01
 -1      1523 1.00000E+03-6.96750E+02 5.00000E+01
 -1      1524 1.00000E+03 6.37500E+02 5.00000E+01
 -1      1525 1.00000E+03 5.63250E+02 5.00000E+01
 -1      1526 1.00000E+03 4.88250E+02 5.00000E+01
 -1      1527 1.00000E+03-3.96000E+02 5.00000E+01
 -1      1528 1.00000E+03-4.89000E+02 5.00000E+01
 -1      1529 1.00000E+03-5.61750E+02 5.00000E+01
 -1      1530 1.00000E+03-6.30750E+02 5.00000E+01
 -1      1531 1.00000E+03-2.93250E+02 5.00000E+01
 -1      1532 1.00000E+03 3.82500E+02 5.00000E+01
 -1      1533 1.00000E+03 2.73750E+02 5.00000E+01
 -1      1534 1.00000E+03 1.36500E+02 5.00000E+01
 -1      1535 1.00000E+03-1.46250E+02 5.00000E+01
 -1      1536 1.00000E+03-1.05000E+01 5.00000E+01
 -1      1537-1.00000E+03-6.93000E+02 5.00000E+01
 -1      1538-1.00000E+03 6.98250E+02 5.00000E+01
 -1      1539-1.00000E+03 6.40500E+02 5.00000E+01
 -1      1540-1.00000E+03-6.35250E+02 5.00000E+01
 -1      1541-1.00000E+03-5.75250E+02 5.00000E+01
 -1      1542-1.00000E+03-4.95750E+02 5.00000E+01
 -1      1543-1.00000E+03-4.14750E+02 5.00000E+01
 -1      1544-1.00000E+03 5.10750E+02 5.00000E+01
 -1      1545-1.00000E+03 5.78250E+02 5.00000E+01
 -1      1546-1.00000E+03-2.98500E+02 5.00000E+01
 -1      1547-1.00000E+03 4.25250E+02 5.00000E+01
 -1      1548-1.00000E+03 3.08250E+02 5.00000E+01
 -1      1549-1.00000E+03-1.58250E+02 5.00000E+01
 -1      1550-1.00000E+03 1.66500E+02 5.00000E+01
 -1      1551-1.00000E+03-3.00000E+00 5.00000E+01
 -1      1552-9.53000E+02 7.50000E+02 5.00000E+01
 -1      1553 9.55000E+02 7.50000E+02 5.00000E+01
 -1      1554-8.95000E+02 7.50000E+02 5.00000E+01
 -1      1555-8.32000E+02 7.50000E+02 5.00000E+01
 -1      1556-7.63000E+02 7.50000E+02 5.00000E+01
 -1      1557-6.78000E+02 7.50000E+02 5.00000E+01
 -1      1558-5.84000E+02 7.50000E+02 5.00000E+01
 -1      1559-4.81000E+02 7.50000E+02 5.00000E+01
 -1      1560-3.81000E+02 7.50000E+02 5.00000E+01
 -1      1561-3.10000E+02 7.50000E+02 5.00000E+01
 -1      1562-2.43000E+02 7.50000E+02 5.00000E+01
 -1      1563-1.83000E+02 7.50000E+02 5.00000E+01
 -1      1564-1.27000E+02 7.50000E+02 5.00000E+01
 -1      1565-8.60000E+01 7.50000E+02 5.00000E+01
 -1      1566-4.70000E+01 7.50000E+02 5.00000E+01
 -1      1567-1.10000E+01 7.50000E+02 5.00000E+01
 -1      1568 2.50000E+01 7.50000E+02 5.00000E+01
 -1      1569 6.90000E+01 7.50000E+02 5.00000E+01
 -1      1570 1.10000E+02 7.50000E+02 5.00000E+01
 -1      1571 1.68000E+02 7.50000E+02 5.00000E+01
 -1      1572 2.27000E+02 7.50000E+02 5.00000E+01
 -1      1573 3.02000E+02 7.50000E+02 5.00000E+01
 -1      1574 3.85000E+02 7.50000E+02 5.00000E+01
 -1      1575 6.89000E+02 7.50000E+02 5.00000E+01
 -1      1576 7.69000E+02 7.50000E+02 5.00000E+01
 -1      1577 8.28000E+02 7.50000E+02 5.00000E+01
 -1      1578 8.98000E+02 7.50000E+02 5.00000E+01
 -1      1579 5.93000E+02 7.50000E+02 5.00000E+01
 -1      1580 4.91000E+02 7.50000E+02 5.00000E+01
 -1      1581-9.05000E+02 6.55000E+02 5.50000E+01
 -1      1582-9.05000E+02 6.55000E+02 5.00000E+00
 -1      1583-8.46760E+02 6.55000E+02 9.50000E+01
 -1      1584-8.46760E+02 6.55000E+02 4.50000E+01
 -1      1585-9.95000E+02-7.45000E+02 4.50000E+01
 -1      1586-9.51000E+02-7.45000E+02 9.50000E+01
 -1      1587-9.95000E+02-7.45000E+02 9.50000E+01
 -1      1588-5.74020E+02 7.45000E+02 5.00000E+00
 -1      1589-5.50180E+02 7.05000E+02 5.00000E+00
 -1      1590-6.63518E+02 6.95000E+02 5.00000E+00
 -1      1591-6.39678E+02 6.55000E+02 5.00000E+00
 -1      1592-6.84268E+02 6.55000E+02 4.50000E+01
 -1      1593-6.21126E+02 6.55000E+02 9.50000E+01
 -1      1594-5.76536E+02 6.55000E+02 5.50000E+01
 -1      1595-3.27020E+02 7.45000E+02 9.50000E+01
 -1      1596-3.32997E+02 6.95000E+02 9.50000E+01
 -1      1597-2.72960E+02 7.05000E+02 9.50000E+01
 -1      1598-2.78937E+02 6.55000E+02 9.50000E+01
 -1      1599-7.86760E+02 7.05000E+02 9.50000E+01
 -1      1600-7.85409E+02 6.55000E+02 9.50000E+01
 -1      1601-7.73130E+02 7.45000E+02 9.50000E+01
 -1      1602-7.71779E+02 6.95000E+02 9.50000E+01
 -1      1603-9.05000E+02 6.55000E+02 9.50000E+01
 -1      1604-9.45000E+02-6.40980E+02 5.00000E+00
 -1      1605-9.45000E+02-6.95000E+02 5.00000E+00
 -1      1606-9.95000E+02-6.33980E+02 5.00000E+00
 -1      1607-9.95000E+02-6.88000E+02 5.00000E+00
 -1      1608-9.05000E+02 6.10780E+02 5.50000E+01
 -1      1609-9.95000E+02 6.35450E+02 5.00000E+00
 -1      1610-9.55000E+02 6.03030E+02 5.00000E+00
 -1      1611-9.95000E+02 5.71810E+02 5.00000E+00
 -1      1612-9.95000E+02-7.45000E+02 5.00000E+00
 -1      1613-9.51000E+02-7.45000E+02 5.50000E+01
 -1      1614-9.05000E+02 6.10780E+02 5.00000E+00
 -1      1615-4.04647E+02 6.95000E+02 9.50000E+01
 -1      1616-3.50587E+02 6.55000E+02 9.50000E+01
 -1      1617-8.41300E+02-6.55000E+02 5.00000E+00
 -1      1618-8.51310E+02-6.55000E+02 4.50000E+01
 -1      1619-7.77400E+02-6.55000E+02 5.50000E+01
 -1      1620-7.87410E+02-6.55000E+02 9.50000E+01
 -1      1621-9.05000E+02-6.55000E+02 5.00000E+00
 -1      1622-1.80310E+02 7.45000E+02 4.50000E+01
 -1      1623-1.39310E+02 7.45000E+02 9.50000E+01
 -1      1624-2.39710E+02 7.45000E+02 4.50000E+01
 -1      1625-1.98710E+02 7.45000E+02 9.50000E+01
 -1      1626-5.99030E+02 7.45000E+02 9.50000E+01
 -1      1627-5.02657E+02 6.95000E+02 9.50000E+01
 -1      1628-4.96030E+02 7.45000E+02 9.50000E+01
 -1      1629-9.05000E+02 5.45780E+02 5.00000E+00
 -1      1630-5.18714E+01 6.91486E+02 9.50000E+01
 -1      1631-2.52314E+01 6.87972E+02 9.50000E+01
 -1      1632-3.56964E+01 6.71486E+02 9.50000E+01
 -1      1633-3.34300E+02-7.45000E+02 5.00000E+00
 -1      1634-4.41000E+02-6.95000E+02 5.00000E+00
 -1      1635-3.15000E+02-6.95000E+02 5.00000E+00
 -1      1636-9.45000E+02-5.27300E+01 5.00000E+00
 -1      1637-9.95000E+02-6.41300E+01 5.00000E+00
 -1      1638-9.05000E+02-1.41510E+02 5.00000E+00
 -1      1639-9.55000E+02-1.52910E+02 5.00000E+00
 -1      1640-9.05000E+02-3.96550E+02 5.00000E+00
 -1      1641-9.55000E+02-4.75800E+02 5.00000E+00
 -1      1642-9.55000E+02-3.94800E+02 5.00000E+00
 -1      1643-5.21279E+01 6.55000E+02 3.00000E+01
 -1      1644-5.32475E+01 6.55000E+02 5.00000E+00
 -1      1645-3.13045E+01 6.55000E+02 2.12000E+01
 -1      1646-9.95000E+02-5.73980E+02 5.00000E+00
 -1      1647-9.55000E+02-5.41800E+02 5.00000E+00
 -1      1648-9.95000E+02-5.14040E+02 5.00000E+00
 -1      1649-9.95000E+02-6.88000E+02 4.50000E+01
 -1      1650 6.55270E+02-6.55000E+02 5.00000E+00
 -1      1651 7.22970E+02-7.05000E+02 5.00000E+00
 -1      1652 7.33570E+02-6.55000E+02 5.00000E+00
 -1      1653 5.11750E+02 7.45000E+02 5.50000E+01
 -1      1654 4.05750E+02 7.45000E+02 5.50000E+01
 -1      1655 4.24750E+02 7.45000E+02 5.00000E+00
 -1      1656 9.95000E+02 1.96480E+02 9.50000E+01
 -1      1657 9.95000E+02 5.92300E+01 9.50000E+01
 -1      1658 9.95000E+02 1.91230E+02 4.50000E+01
 -1      1659-9.95000E+02 2.08800E+02 9.50000E+01
 -1      1660-9.95000E+02 1.66050E+02 4.50000E+01
 -1      1661-9.95000E+02 6.70500E+01 9.50000E+01
 -1      1662 9.05000E+02 6.55000E+02 9.50000E+01
 -1      1663 8.58590E+02 6.55000E+02 5.50000E+01
 -1      1664 9.05000E+02 6.55000E+02 4.50000E+01
 -1      1665 8.58590E+02 6.55000E+02 5.00000E+00
 -1      1666 6.30996E-01 6.20375E+02 5.86782E+01
 -1      1667 6.30996E-01 5.90375E+02 5.00000E+01
 -1      1668 6.30996E-01 6.50000E+02 7.04500E+01
 -1      1669 6.30996E-01 6.20000E+02 6.17718E+01
 -1      1670-9.55000E+02 4.60980E+02 9.50000E+01
 -1      1671-9.95000E+02 5.17040E+02 9.50000E+01
 -1      1672-9.05000E+02 4.76880E+02 9.50000E+01
 -1      1673-9.45000E+02 5.32940E+02 9.50000E+01
 -1      1674-9.05000E+02 3.94330E+02 9.50000E+01
 -1      1675-9.55000E+02 3.75480E+02 9.50000E+01
 -1      1676-1.47344E+02 6.55000E+02 5.50000E+01
 -1      1677-1.37334E+02 6.55000E+02 9.50000E+01
 -1      1678-1.76464E+02 6.55000E+02 9.50000E+01
 -1      1679-9.07440E+02-7.45000E+02 5.50000E+01
 -1      1680-9.06450E+02-7.45000E+02 9.50000E+01
 -1      1681-9.05000E+02-6.08800E+02 5.00000E+00
 -1      1682-9.05000E+02-4.83000E+02 5.00000E+00
 -1      1683-2.46184E+01 6.55000E+02 9.50000E+01
 -1      1684-1.47664E+01 6.71486E+02 9.50000E+01
 -1      1685-4.91450E+00 6.55000E+02 9.50000E+01
 -1      1686-9.05000E+02-4.74990E+02 9.50000E+01
 -1      1687-9.05000E+02-4.02840E+02 9.50000E+01
 -1      1688-9.05000E+02-4.88850E+02 5.50000E+01
 -1      1689-9.05000E+02-4.16700E+02 5.50000E+01
 -1      1690-9.95000E+02-5.69540E+02 4.50000E+01
 -1      1691-9.95000E+02-5.49290E+02 9.50000E+01
 -1      1692-9.95000E+02-6.28790E+02 9.50000E+01
 -1      1693-5.51932E+01 7.18478E+02 5.00000E+00
 -1      1694-2.89960E+01 7.11486E+02 5.00000E+00
 -1      1695-3.28400E+01 7.45000E+02 5.00000E+00
 -1      1696 8.52590E+02-7.05000E+02 5.00000E+00
 -1      1697 8.94450E+02-7.45000E+02 5.00000E+00
 -1      1698 8.39010E+02-7.45000E+02 5.00000E+00
 -1      1699 9.45000E+02 6.95000E+02 5.00000E+00
 -1      1700 9.95000E+02 7.45000E+02 5.00000E+00
 -1      1701 9.95000E+02 6.88000E+02 5.00000E+00
 -1      1702 2.90328E+02 6.95000E+02 5.00000E+00
 -1      1703 3.01878E+02 6.55000E+02 5.00000E+00
 -1      1704 2.40243E+02 6.95000E+02 5.00000E+00
 -1      1705 2.51793E+02 6.55000E+02 5.00000E+00
 -1      1706-9.95000E+02 4.31540E+02 9.50000E+01
 -1      1707-9.95000E+02 3.48660E+02 9.50000E+01
 -1      1708-9.55000E+02-6.01800E+02 5.00000E+00
 -1      1709 9.95000E+02-2.22300E+02 9.50000E+01
 -1      1710 9.95000E+02-1.01550E+02 4.50000E+01
 -1      1711 9.95000E+02-8.65500E+01 9.50000E+01
 -1      1712 1.33478E+01 6.87972E+02 9.50000E+01
 -1      1713 2.38128E+01 6.71486E+02 9.50000E+01
 -1      1714 3.51878E+01 6.87972E+02 9.50000E+01
 -1      1715-8.97480E+02 6.95000E+02 9.50000E+01
 -1      1716-9.45000E+02 6.95000E+02 9.50000E+01
 -1      1717-3.87897E+02 6.55000E+02 5.50000E+01
 -1      1718-3.41325E+02 6.55000E+02 5.00000E+00
 -1      1719-3.04015E+02 6.55000E+02 4.50000E+01
 -1      1720-9.05000E+02 6.06820E+02 9.50000E+01
 -1      1721-9.45000E+02 6.43200E+02 9.50000E+01
 -1      1722-4.22760E+01 6.71486E+02 5.00000E+00
 -1      1723-2.59475E+01 6.55000E+02 5.00000E+00
 -1      1724-1.49760E+01 6.71486E+02 5.00000E+00
 -1      1725-9.37000E+02 7.45000E+02 5.00000E+00
 -1      1726-8.88490E+02 7.45000E+02 5.00000E+00
 -1      1727-9.48000E+02 7.45000E+02 5.50000E+01
 -1      1728-8.99490E+02 7.45000E+02 5.50000E+01
 -1      1729 9.01440E+02-6.95000E+02 9.50000E+01
 -1      1730 8.55860E+02-6.55000E+02 9.50000E+01
 -1      1731 9.06440E+02-7.45000E+02 9.50000E+01
 -1      1732 8.60860E+02-7.05000E+02 9.50000E+01
 -1      1733-9.05000E+02 4.59980E+02 4.50000E+01
 -1      1734 9.05000E+02-6.55000E+02 9.50000E+01
 -1      1735 8.59950E+02 7.05000E+02 9.50000E+01
 -1      1736 7.99052E+02 6.55000E+02 9.50000E+01
 -1      1737 8.54950E+02 6.55000E+02 9.50000E+01
 -1      1738 7.22610E+02 7.05000E+02 9.50000E+01
 -1      1739 6.53007E+02 6.55000E+02 9.50000E+01
 -1      1740 6.26610E+02 7.05000E+02 9.50000E+01
 -1      1741-9.95000E+02 5.05790E+02 4.50000E+01
 -1      1742-8.95450E+02-7.45000E+02 4.50000E+01
 -1      1743-8.96440E+02-7.45000E+02 5.00000E+00
 -1      1744-6.88130E+02 7.45000E+02 9.50000E+01
 -1      1745-9.05000E+02 3.73500E+01 5.00000E+00
 -1      1746-9.05000E+02 2.05050E+02 5.00000E+00
 -1      1747-9.05000E+02 1.27700E+02 5.50000E+01
 -1      1748-1.10835E+02 7.25000E+02 9.50000E+01
 -1      1749-1.21960E+02 7.05000E+02 9.50000E+01
 -1      1750 9.95000E+02-3.25900E+02 9.50000E+01
 -1      1751 9.95000E+02-4.28650E+02 9.50000E+01
 -1      1752 9.95000E+02-3.52150E+02 4.50000E+01
 -1      1753 9.95000E+02-3.30690E+02 5.00000E+00
 -1      1754 9.95000E+02-4.23690E+02 5.00000E+00
 -1      1755 9.95000E+02-4.45150E+02 4.50000E+01
 -1      1756 9.45000E+02-6.95000E+02 9.50000E+01
 -1      1757 2.26055E+00 2.84638E+02 7.70768E+01
 -1      1758 2.26055E+00 2.83388E+02 2.70768E+01
 -1      1759-2.39453E-01 2.62194E+02 7.70768E+01
 -1      1760 3.13100E+00 2.74306E+02 5.00000E+01
 -1      1761-7.72140E+02 7.45000E+02 5.50000E+01
 -1      1762-7.55140E+02 7.45000E+02 5.00000E+00
 -1      1763-7.56130E+02 7.45000E+02 4.50000E+01
 -1      1764-7.73579E+02 6.55000E+02 5.50000E+01
 -1      1765-8.34930E+02 6.55000E+02 5.00000E+00
 -1      1766 7.41760E+02-6.55000E+02 4.50000E+01
 -1      1767 6.63460E+02-6.55000E+02 4.50000E+01
 -1      1768 9.95000E+02-5.67990E+02 5.00000E+00
 -1      1769 9.55000E+02-5.37210E+02 5.00000E+00
 -1      1770 9.95000E+02-5.09530E+02 5.00000E+00
 -1      1771 9.50000E+02-7.45000E+02 9.50000E+01
 -1      1772-2.41450E+00 6.67990E+02 9.50000E+01
 -1      1773-4.55484E+01 6.55000E+02 9.50000E+01
 -1      1774-7.04419E+02 6.55000E+02 9.50000E+01
 -1      1775-6.20770E+02 7.05000E+02 9.50000E+01
 -1      1776 3.29801E+01 6.55000E+02 9.50000E+01
 -1      1777 4.43551E+01 6.71486E+02 9.50000E+01
 -1      1778-8.81445E+01 6.75000E+02 9.50000E+01
 -1      1779-9.92695E+01 6.55000E+02 9.50000E+01
 -1      1780-9.45000E+02 6.43200E+02 5.00000E+00
 -1      1781-9.45000E+02 6.95000E+02 5.00000E+00
 -1      1782-2.58710E+02 7.45000E+02 9.50000E+01
 -1      1783-2.21090E+02 7.05000E+02 9.50000E+01
 -1      1784-1.61090E+02 7.05000E+02 9.50000E+01
 -1      1785 9.55000E+02-6.06210E+02 5.00000E+00
 -1      1786 9.05000E+02-5.49010E+02 5.00000E+00
 -1      1787 9.05000E+02-6.09460E+02 5.00000E+00
 -1      1788-3.98020E+02 7.45000E+02 9.50000E+01
 -1      1789-3.06710E+02 7.45000E+02 4.50000E+01
 -1      1790-2.35750E+02 7.45000E+02 5.00000E+00
 -1      1791-3.02750E+02 7.45000E+02 5.00000E+00
 -1      1792-1.57644E+02 6.55000E+02 5.00000E+00
 -1      1793-1.86764E+02 6.55000E+02 4.50000E+01
 -1      1794-9.05000E+02-6.55000E+02 5.50000E+01
 -1      1795-9.05000E+02-6.55000E+02 9.50000E+01
 -1      1796-9.05000E+02-6.08800E+02 5.50000E+01
 -1      1797-8.51310E+02-6.55000E+02 9.50000E+01
 -1      1798-9.83100E+01 7.45000E+02 9.50000E+01
 -1      1799-1.24310E+02 7.45000E+02 4.50000E+01
 -1      1800 9.39000E+02-7.45000E+02 5.00000E+00
 -1      1801 9.95000E+02-7.45000E+02 5.00000E+00
 -1      1802 9.45000E+02-6.95000E+02 5.00000E+00
 -1      1803-4.00450E+00 6.55000E+02 2.12000E+01
 -1      1804-1.53795E+01 6.55000E+02 4.47139E+01
 -1      1805 9.50000E+02-7.45000E+02 5.50000E+01
 -1      1806-9.95000E+02 6.87250E+02 5.00000E+00
 -1      1807-9.01440E+02-6.95000E+02 5.00000E+00
 -1      1808 1.87170E+02 7.05000E+02 9.50000E+01
 -1      1809 1.29170E+02 7.05000E+02 9.50000E+01
 -1      1810 2.13930E+02 7.45000E+02 9.50000E+01
 -1      1811 1.55930E+02 7.45000E+02 9.50000E+01
 -1      1812 9.05450E+02-7.45000E+02 5.50000E+01
 -1      1813-9.95000E+02 7.45000E+02 5.00000E+00
 -1      1814 9.05000E+02 6.09460E+02 5.00000E+00
 -1      1815 9.55000E+02 6.02460E+02 5.00000E+00
 -1      1816 9.05000E+02 5.45110E+02 5.00000E+00
 -1      1817 9.00450E+02-6.95000E+02 5.00000E+00
 -1      1818-6.20970E+02-6.55000E+02 9.50000E+01
 -1      1819-5.19960E+02-6.55000E+02 9.50000E+01
 -1      1820-5.78200E+02-6.55000E+02 5.50000E+01
 -1      1821-9.00480E+02 7.45000E+02 9.50000E+01
 -1      1822-9.48000E+02 7.45000E+02 9.50000E+01
 -1      1823-9.45000E+02 5.95100E+02 9.50000E+01
 -1      1824-9.05000E+02 5.58720E+02 9.50000E+01
 -1      1825 9.95000E+02-7.45000E+02 9.50000E+01
 -1      1826 9.95000E+02-6.92460E+02 9.50000E+01
 -1      1827 9.45000E+02-6.42460E+02 9.50000E+01
 -1      1828 2.85550E+01 7.21486E+02 5.00000E+00
 -1      1829 4.12139E+01 6.94964E+02 5.00000E+00
 -1      1830 4.07800E+01 7.45000E+02 5.00000E+00
 -1      1831 5.34389E+01 7.18478E+02 5.00000E+00
 -1      1832 7.13420E+02 7.05000E+02 5.00000E+00
 -1      1833 7.04760E+02 7.45000E+02 5.00000E+00
 -1      1834 6.47053E+02 6.55000E+02 5.00000E+00
 -1      1835 6.38393E+02 6.95000E+02 5.00000E+00
 -1      1836-1.03795E+01 6.55000E+02 6.37139E+01
 -1      1837 6.30996E-01 6.50000E+02 5.14000E+01
 -1      1838 1.23705E+01 6.55000E+02 5.66861E+01
 -1      1839 7.37050E+00 6.55000E+02 3.76861E+01
 -1      1840 9.00450E+02 6.95000E+02 5.00000E+00
 -1      1841 9.05000E+02 6.55000E+02 5.00000E+00
 -1      1842-9.95000E+02 5.79200E+02 9.50000E+01
 -1      1843 2.55624E+01 6.94964E+02 5.00000E+00
 -1      1844-4.91450E+00 6.55000E+02 8.02500E+01
 -1      1845-2.58445E+01 6.55000E+02 8.02500E+01
 -1      1846-6.05970E+02-6.95000E+02 9.50000E+01
 -1      1847-5.99386E+02 6.95000E+02 9.50000E+01
 -1      1848-7.70200E+02-6.55000E+02 5.00000E+00
 -1      1849 8.93450E+02 7.45000E+02 5.00000E+00
 -1      1850 9.38000E+02 7.45000E+02 5.00000E+00
 -1      1851 7.83010E+02-7.45000E+02 5.50000E+01
 -1      1852 7.84010E+02-7.45000E+02 5.00000E+00
 -1      1853 4.44410E+02-6.55000E+02 5.00000E+00
 -1      1854 5.49710E+02-6.55000E+02 5.00000E+00
 -1      1855 4.68980E+02-6.55000E+02 4.50000E+01
 -1      1856 5.74280E+02-6.55000E+02 4.50000E+01
 -1      1857-9.95000E+02 3.88130E+02 5.00000E+00
 -1      1858-9.55000E+02 4.44450E+02 5.00000E+00
 -1      1859-9.45000E+02 2.80730E+02 5.00000E+00
 -1      1860-9.05000E+02 3.37050E+02 5.00000E+00
 -1      1861-9.45000E+02 5.14560E+02 5.00000E+00
 -1      1862 8.51590E+02 7.05000E+02 5.00000E+00
 -1      1863-4.26117E+02 6.55000E+02 9.50000E+01
 -1      1864-4.67764E+02 6.55000E+02 4.50000E+01
 -1      1865-4.29544E+02 6.55000E+02 5.00000E+00
 -1      1866 8.02692E+02 6.55000E+02 5.50000E+01
 -1      1867 7.31712E+02 6.55000E+02 9.50000E+01
 -1      1868 8.06717E+02 6.55000E+02 5.00000E+00
 -1      1869 7.35737E+02 6.55000E+02 4.50000E+01
 -1      1870-1.53795E+01 6.55000E+02 6.37639E+01
 -1      1871 8.00060E+02-6.55000E+02 9.50000E+01
 -1      1872-9.45000E+02-6.95000E+02 9.50000E+01
 -1      1873-7.72300E+02-7.05000E+02 5.00000E+00
 -1      1874-6.79980E+02-7.45000E+02 5.00000E+00
 -1      1875-6.77880E+02-6.95000E+02 5.00000E+00
 -1      1876 8.54980E-02 6.55000E+02 8.02000E+01
 -1      1877-9.95000E+02-8.46500E+01 9.50000E+01
 -1      1878-9.95000E+02 6.37000E+00 5.50000E+01
 -1      1879-9.95000E+02-1.55150E+02 4.50000E+01
 -1      1880 9.95000E+02 5.70340E+02 5.00000E+00
 -1      1881 9.95000E+02 5.82180E+02 4.50000E+01
 -1      1882 9.95000E+02 6.35460E+02 5.00000E+00
 -1      1883-2.27067E+02 6.55000E+02 9.50000E+01
 -1      1884-7.97310E+02-7.05000E+02 9.50000E+01
 -1      1885-7.86060E+02-7.45000E+02 9.50000E+01
 -1      1886-7.76160E+02-6.95000E+02 9.50000E+01
 -1      1887-6.84732E+01 6.78478E+02 5.00000E+00
 -1      1888-8.36989E+01 6.55000E+02 5.00000E+00
 -1      1889-8.46450E+02-7.45000E+02 9.50000E+01
 -1      1890-3.72050E+02 7.45000E+02 5.00000E+00
 -1      1891-4.43324E+02 6.95000E+02 5.00000E+00
 -1      1892-3.58270E+02 7.05000E+02 5.00000E+00
 -1      1893 9.45000E+02 6.42460E+02 5.00000E+00
 -1      1894-1.20350E+02 7.45000E+02 5.00000E+00
 -1      1895-7.18400E+01 7.45000E+02 5.00000E+00
 -1      1896-8.47100E+01 7.45000E+02 4.50000E+01
 -1      1897-9.05000E+02-6.01540E+02 9.50000E+01
 -1      1898-9.45000E+02-6.36540E+02 9.50000E+01
 -1      1899-7.39679E+01 6.55000E+02 7.00000E+01
 -1      1900-4.66679E+01 6.55000E+02 7.00000E+01
 -1      1901-7.19695E+01 6.55000E+02 9.50000E+01
 -1      1902 1.46455E+01 6.55000E+02 9.50000E+01
 -1      1903 6.59860E+02-6.55000E+02 9.50000E+01
 -1      1904 7.30160E+02-7.05000E+02 9.50000E+01
 -1      1905 7.36360E+02-6.55000E+02 9.50000E+01
 -1      1906-9.40000E+02-7.45000E+02 5.00000E+00
 -1      1907 6.31160E+02-7.05000E+02 9.50000E+01
 -1      1908 9.05000E+02-4.83010E+02 5.00000E+00
 -1      1909 9.05000E+02-4.18660E+02 5.50000E+01
 -1      1910 9.05000E+02-4.90810E+02 5.50000E+01
 -1      1911-8.36300E+02-7.05000E+02 5.00000E+00
 -1      1912-9.05000E+02 2.10330E+02 4.50000E+01
 -1      1913-9.05000E+02 1.32980E+02 9.50000E+01
 -1      1914 1.82250E+02 7.45000E+02 5.50000E+01
 -1      1915 1.34250E+02 7.45000E+02 5.00000E+00
 -1      1916 1.24250E+02 7.45000E+02 5.50000E+01
 -1      1917-4.57100E+01 7.45000E+02 4.50000E+01
 -1      1918-9.95000E+02 1.05370E+02 5.00000E+00
 -1      1919 3.52150E+02 7.05000E+02 5.00000E+00
 -1      1920 3.68956E+02 6.55000E+02 5.00000E+00
 -1      1921-9.95000E+02 6.93250E+02 5.50000E+01
 -1      1922-9.95000E+02 6.41450E+02 5.50000E+01
 -1      1923 8.02790E+02-6.55000E+02 5.50000E+01
 -1      1924 8.58590E+02-6.55000E+02 5.50000E+01
 -1      1925 8.08190E+02-6.55000E+02 5.00000E+00
 -1      1926-9.95000E+02 2.71130E+02 5.00000E+00
 -1      1927 8.37020E+02 7.45000E+02 5.00000E+00
 -1      1928 7.78020E+02 7.45000E+02 5.00000E+00
 -1      1929 7.79020E+02 7.45000E+02 5.50000E+01
 -1      1930 2.44513E+02 6.55000E+02 4.50000E+01
 -1      1931 2.94598E+02 6.55000E+02 4.50000E+01
 -1      1932-9.95000E+02 5.04310E+02 5.00000E+00
 -1      1933-7.68090E+02-7.45000E+02 5.00000E+00
 -1      1934-9.95000E+02-2.09910E+02 5.00000E+00
 -1      1935-9.95000E+02-2.94660E+02 5.50000E+01
 -1      1936-9.95000E+02-2.39900E+02 9.50000E+01
 -1      1937-5.05870E+02-7.45000E+02 9.50000E+01
 -1      1938-4.19860E+02-7.05000E+02 9.50000E+01
 -1      1939 1.33859E+02 6.55000E+02 9.50000E+01
 -1      1940 7.93860E+02-7.05000E+02 9.50000E+01
 -1      1941 8.39440E+02-7.45000E+02 9.50000E+01
 -1      1942-8.24140E+02 7.45000E+02 5.00000E+00
 -1      1943-8.26930E+02 7.05000E+02 5.00000E+00
 -1      1944-7.57930E+02 7.05000E+02 5.00000E+00
 -1      1945-1.03703E+02 7.18478E+02 5.00000E+00
 -1      1946-9.95000E+02-3.53860E+02 9.50000E+01
 -1      1947-9.45000E+02-4.31260E+02 9.50000E+01
 -1      1948-9.95000E+02-4.70110E+02 9.50000E+01
 -1      1949 4.41000E+00-6.95000E+02 9.50000E+01
 -1      1950-5.12400E+01-6.55000E+02 9.50000E+01
 -1      1951-4.47900E+01-7.45000E+02 9.50000E+01
 -1      1952-1.00440E+02-7.05000E+02 9.50000E+01
 -1      1953 2.57034E+02 6.55000E+02 9.50000E+01
 -1      1954 9.55000E+02-4.41510E+02 9.50000E+01
 -1      1955 9.05000E+02-4.05460E+02 9.50000E+01
 -1      1956 9.45000E+02-3.92600E+02 9.50000E+01
 -1      1957 1.93334E+02 6.55000E+02 9.50000E+01
 -1      1958 9.95000E+02 5.83680E+02 9.50000E+01
 -1      1959 9.95000E+02 6.39920E+02 9.50000E+01
 -1      1960 9.95000E+02 6.36960E+02 5.50000E+01
 -1      1961-9.05000E+02 2.62330E+02 9.50000E+01
 -1      1962-9.05000E+02 3.89050E+02 5.50000E+01
 -1      1963 5.70680E+02-6.55000E+02 9.50000E+01
 -1      1964 8.17800E+01 7.45000E+02 5.00000E+00
 -1      1965 9.95000E+02-6.36990E+02 5.00000E+00
 -1      1966-9.00450E+02-6.95000E+02 9.50000E+01
 -1      1967 2.57600E+02 7.45000E+02 5.00000E+00
 -1      1968-9.95000E+02-4.93790E+02 5.50000E+01
 -1      1969-6.24870E+02-7.45000E+02 9.50000E+01
 -1      1970 3.52410E+02 6.55000E+02 5.50000E+01
 -1      1971-4.72050E+02 7.45000E+02 5.00000E+00
 -1      1972-9.95000E+02-4.33040E+02 5.00000E+00
 -1      1973-9.95000E+02-4.09360E+02 4.50000E+01
 -1      1974-9.95000E+02 5.79200E+02 5.50000E+01
 -1      1975-9.95000E+02 5.15560E+02 5.50000E+01
 -1      1976 7.44566E+01 7.18478E+02 5.00000E+00
 -1      1977-4.00450E+00 6.55000E+02 5.00000E+00
 -1      1978 6.30996E-01 6.50000E+02 3.23500E+01
 -1      1979 6.30996E-01 6.50000E+02 1.61500E+01
 -1      1980 9.95498E-01 6.55000E+02 2.11500E+01
 -1      1981-1.18929E+02 6.95000E+02 5.00000E+00
 -1      1982-1.61024E+02 6.95000E+02 5.00000E+00
 -1      1983-1.15549E+02 6.55000E+02 5.00000E+00
 -1      1984 6.30996E-01 6.32750E+02 8.52500E+01
 -1      1985 6.30996E-01 6.02750E+02 7.65218E+01
 -1      1986 9.95000E+02-6.24240E+02 5.50000E+01
 -1      1987 9.95000E+02-6.39210E+02 4.50000E+01
 -1      1988 9.95000E+02-6.26460E+02 9.50000E+01
 -1      1989-8.32090E+02-7.45000E+02 5.00000E+00
 -1      1990-8.35060E+02-7.45000E+02 4.50000E+01
 -1      1991-3.62029E+01 6.55000E+02 5.35139E+01
 -1      1992-9.45000E+02-5.03410E+02 9.50000E+01
 -1      1993-9.45000E+02-5.82590E+02 9.50000E+01
 -1      1994-9.05000E+02-5.47590E+02 9.50000E+01
 -1      1995-9.95000E+02 6.41450E+02 9.50000E+01
 -1      1996-9.05000E+02 5.62680E+02 5.50000E+01
 -1      1997 9.05000E+02 6.09460E+02 5.50000E+01
 -1      1998 9.05000E+02 6.06160E+02 9.50000E+01
 -1      1999-7.53428E+02 6.55000E+02 5.00000E+00
 -1      2000-1.25910E+02-6.95000E+02 5.00000E+00
 -1      2001 3.87900E+01-7.45000E+02 5.00000E+00
 -1      2002-1.50300E+02-7.45000E+02 5.00000E+00
 -1      2003 4.43440E+02-7.45000E+02 9.50000E+01
 -1      2004 3.60440E+02-7.45000E+02 4.50000E+01
 -1      2005 5.04820E+02-7.45000E+02 5.50000E+01
 -1      2006 4.21820E+02-7.45000E+02 5.00000E+00
 -1      2007 9.45000E+02-3.48390E+02 5.00000E+00
 -1      2008 9.05000E+02-3.95910E+02 5.00000E+00
 -1      2009 9.55000E+02-4.71210E+02 5.00000E+00
 -1      2010 6.30996E-01 1.65500E+02 8.52500E+01
 -1      2011-9.55000E+02 2.43480E+02 9.50000E+01
 -1      2012 9.05000E+02 3.91710E+02 9.50000E+01
 -1      2013 9.05000E+02 4.59310E+02 4.50000E+01
 -1      2014 9.05000E+02 4.74260E+02 9.50000E+01
 -1      2015-5.22846E+02 6.55000E+02 9.50000E+01
 -1      2016-5.21454E+02 6.55000E+02 5.00000E+00
 -1      2017-9.05000E+02-5.49000E+02 5.00000E+00
 -1      2018 9.05000E+02-6.02200E+02 9.50000E+01
 -1      2019 9.55000E+02-5.86200E+02 9.50000E+01
 -1      2020-6.98350E+01 7.25000E+02 9.50000E+01
 -1      2021 4.24300E+02 6.55000E+02 5.50000E+01
 -1      2022 4.40846E+02 6.55000E+02 5.00000E+00
 -1      2023 3.69374E+01 6.78478E+02 5.00000E+00
 -1      2024 3.93970E+01 6.55000E+02 5.00000E+00
 -1      2025 5.25889E+01 6.78478E+02 5.00000E+00
 -1      2026 9.45000E+02 5.39780E+02 9.50000E+01
 -1      2027 9.95000E+02 5.09430E+02 9.50000E+01
 -1      2028-2.85805E+02 6.95000E+02 5.00000E+00
 -1      2029 9.95000E+02 4.95340E+02 5.00000E+00
 -1      2030 9.45000E+02 5.12990E+02 5.00000E+00
 -1      2031 9.55000E+02 4.35720E+02 5.00000E+00
 -1      2032 9.05000E+02 4.53370E+02 5.00000E+00
 -1      2033 9.95000E+02 6.89500E+02 5.50000E+01
 -1      2034-2.96850E+02-6.55000E+02 5.00000E+00
 -1      2035-2.79000E+00-7.45000E+02 4.50000E+01
 -1      2036 1.72440E+02-7.45000E+02 4.50000E+01
 -1      2037 1.17739E+02 6.55000E+02 5.00000E+00
 -1      2038 1.04547E+02 6.78478E+02 5.00000E+00
 -1      2039 9.13546E+01 6.55000E+02 5.00000E+00
 -1      2040 6.16000E+01-6.55000E+02 5.50000E+01
 -1      2041 1.38040E+02-6.55000E+02 9.50000E+01
 -1      2042 6.88000E+01-6.55000E+02 5.00000E+00
 -1      2043 1.45240E+02-6.55000E+02 4.50000E+01
 -1      2044 5.30820E+02-7.45000E+02 5.00000E+00
 -1      2045 3.28840E+02-6.55000E+02 4.50000E+01
 -1      2046 5.26750E+02 7.45000E+02 5.00000E+00
 -1      2047-8.36490E+02 7.45000E+02 5.50000E+01
 -1      2048-4.31950E+01 7.21486E+02 9.50000E+01
 -1      2049-5.87100E+01 7.45000E+02 9.50000E+01
 -1      2050 3.10440E+02-7.45000E+02 9.50000E+01
 -1      2051 3.55140E+02-6.95000E+02 9.50000E+01
 -1      2052 9.95000E+02 2.77880E+02 5.50000E+01
 -1      2053 9.95000E+02 2.72630E+02 5.00000E+00
 -1      2054 3.45130E+02 6.55000E+02 9.50000E+01
 -1      2055 6.30996E-01 1.69982E+02 4.18750E+01
 -1      2056 6.30996E-01 1.69982E+02 6.09250E+01
 -1      2057 9.95000E+02 6.89500E+02 9.50000E+01
 -1      2058 9.95000E+02 7.45000E+02 9.50000E+01
 -1      2059 9.95000E+02 7.45000E+02 5.50000E+01
 -1      2060 9.45000E+02-5.35790E+02 9.50000E+01
 -1      2061 9.05000E+02-5.49550E+02 9.50000E+01
 -1      2062 9.95000E+02-5.72440E+02 9.50000E+01
 -1      2063 5.31900E+01-6.95000E+02 5.00000E+00
 -1      2064 8.58590E+02-6.55000E+02 5.00000E+00
 -1      2065 4.53680E+02-6.55000E+02 9.50000E+01
 -1      2066 3.13540E+02-6.55000E+02 9.50000E+01
 -1      2067 9.05000E+02 3.37020E+02 5.00000E+00
 -1      2068-9.95000E+02 7.45000E+02 5.50000E+01
 -1      2069-9.95000E+02 7.45000E+02 9.50000E+01
 -1      2070-9.95000E+02 6.93250E+02 9.50000E+01
 -1      2071-9.05000E+02 4.54700E+02 5.00000E+00
 -1      2072 7.24995E+01 6.55000E+02 7.16928E+01
 -1      2073 8.92689E+01 6.55000E+02 9.50000E+01
 -1      2074 5.57301E+01 6.55000E+02 9.50000E+01
 -1      2075 9.55000E+02 6.49500E+02 9.50000E+01
 -1      2076 3.21600E+02 7.45000E+02 5.50000E+01
 -1      2077 3.62190E+02 7.45000E+02 9.50000E+01
 -1      2078-7.03770E+02-6.55000E+02 4.50000E+01
 -1      2079-7.10970E+02-6.55000E+02 9.50000E+01
 -1      2080-9.95000E+02 3.05910E+02 4.50000E+01
 -1      2081-9.95000E+02 4.22910E+02 4.50000E+01
 -1      2082-8.96490E+02 6.95000E+02 5.00000E+00
 -1      2083-3.75020E+02 7.45000E+02 4.50000E+01
 -1      2084-4.84070E+02-7.45000E+02 4.50000E+01
 -1      2085-3.57070E+02-7.45000E+02 4.50000E+01
 -1      2086-3.87070E+02-7.45000E+02 9.50000E+01
 -1      2087-2.23930E+02 7.05000E+02 5.00000E+00
 -1      2088-2.08604E+02 6.55000E+02 5.00000E+00
 -1      2089-2.73985E+02 6.55000E+02 5.00000E+00
 -1      2090 7.27547E+02 6.55000E+02 5.00000E+00
 -1      2091 4.31820E+02-6.95000E+02 5.00000E+00
 -1      2092 5.43410E+02-7.05000E+02 5.00000E+00
 -1      2093 2.52400E+02-6.55000E+02 5.00000E+00
 -1      2094 1.06559E+02 6.55000E+02 5.50000E+01
 -1      2095 1.45039E+02 6.55000E+02 4.50000E+01
 -1      2096 9.95000E+02-4.99690E+02 9.50000E+01
 -1      2097 9.95000E+02-5.16190E+02 4.50000E+01
 -1      2098 3.69356E+00 2.37285E+02 1.76413E+01
 -1      2099-1.30644E+00 2.72535E+02 1.76413E+01
 -1      2100 3.69356E+00 2.72535E+02 1.76413E+01
 -1      2101-7.05060E+02-7.45000E+02 9.50000E+01
 -1      2102 7.10750E+02-7.45000E+02 5.00000E+00
 -1      2103-2.48907E+02 6.55000E+02 5.50000E+01
 -1      2104 9.55000E+02 6.00660E+02 9.50000E+01
 -1      2105 9.05000E+02 5.56760E+02 9.50000E+01
 -1      2106 8.97895E+01 6.55000E+02 3.16928E+01
 -1      2107-1.06714E+01 6.87972E+02 9.50000E+01
 -1      2108 1.68050E+00 6.84476E+02 9.50000E+01
 -1      2109 7.09750E+02-7.45000E+02 5.50000E+01
 -1      2110 7.71130E+02-7.45000E+02 9.50000E+01
 -1      2111 1.21455E+01 6.67990E+02 9.50000E+01
 -1      2112-5.91980E+02-7.45000E+02 5.00000E+00
 -1      2113 2.42400E+02-7.05000E+02 5.00000E+00
 -1      2114 9.10000E+02 7.05000E+02 9.50000E+01
 -1      2115 9.95000E+02 4.97590E+02 5.50000E+01
 -1      2116 3.07051E+01 6.55000E+02 7.14861E+01
 -1      2117 3.40600E+02 7.45000E+02 5.00000E+00
 -1      2118 6.30996E-01 1.91625E+02 1.64861E+01
 -1      2119 6.30996E-01 1.65250E+02 1.61500E+01
 -1      2120 4.74745E+01 6.55000E+02 4.81789E+01
 -1      2121 1.04189E+02 6.95000E+02 9.50000E+01
 -1      2122 9.95000E+01 7.45000E+02 9.50000E+01
 -1      2123 9.95000E+02-6.91750E+02 5.00000E+00
 -1      2124 9.45000E+02 3.75830E+02 9.50000E+01
 -1      2125 9.55000E+02 4.43910E+02 9.50000E+01
 -1      2126 9.95000E+02 4.28030E+02 9.50000E+01
 -1      2127 6.55243E+02 6.55000E+02 4.50000E+01
 -1      2128 5.54727E+02 6.55000E+02 9.50000E+01
 -1      2129 5.56963E+02 6.55000E+02 4.50000E+01
 -1      2130-5.54800E+02-6.55000E+02 5.00000E+00
 -1      2131-5.75100E+02-7.05000E+02 5.00000E+00
 -1      2132-6.61000E+02-6.55000E+02 5.00000E+00
 -1      2133 6.30996E-01 1.96357E+02 4.22111E+01
 -1      2134 4.22330E+02 7.05000E+02 9.50000E+01
 -1      2135 3.25870E+02 7.05000E+02 9.50000E+01
 -1      2136 1.23705E+01 6.55000E+02 3.76361E+01
 -1      2137 7.94610E+02-6.95000E+02 5.00000E+00
 -1      2138-3.59370E+02-6.95000E+02 9.50000E+01
 -1      2139-3.92160E+02-6.55000E+02 9.50000E+01
 -1      2140 5.28330E+02 7.05000E+02 9.50000E+01
 -1      2141-1.10300E+02-6.55000E+02 5.00000E+00
 -1      2142-2.23140E+02-6.55000E+02 4.50000E+01
 -1      2143-4.40400E+01-6.55000E+02 4.50000E+01
 -1      2144-6.39870E+02-7.05000E+02 9.50000E+01
 -1      2145 6.30996E-01 1.85482E+02 7.57250E+01
 -1      2146 6.30996E-01 1.96732E+02 5.92389E+01
 -1      2147-9.05000E+02-2.80600E+01 9.50000E+01
 -1      2148-9.05000E+02-1.83410E+02 9.50000E+01
 -1      2149-9.05000E+02-1.18410E+02 4.50000E+01
 -1      2150-9.95000E+02-6.87250E+02 9.50000E+01
 -1      2151-9.95000E+02-6.33230E+02 5.50000E+01
 -1      2152 4.41590E+02 6.55000E+02 9.50000E+01
 -1      2153 9.45000E+02-6.40240E+02 5.00000E+00
 -1      2154-5.73030E+02 7.45000E+02 4.50000E+01
 -1      2155 9.95000E+02 4.25780E+02 4.50000E+01
 -1      2156-6.68020E+02 7.45000E+02 5.00000E+00
 -1      2157 9.95000E+02 3.22280E+02 9.50000E+01
 -1      2158 9.95000E+02 3.81380E+02 5.00000E+00
 -1      2159 8.54980E-02 6.55000E+02 9.50000E+01
 -1      2160 6.30996E-01 6.50000E+02 8.52500E+01
 -1      2161 9.05000E+02-6.55000E+02 4.50000E+01
 -1      2162 7.89950E+02 7.05000E+02 9.50000E+01
 -1      2163 7.64170E+02 7.45000E+02 9.50000E+01
 -1      2164 1.93250E+02 7.45000E+02 5.00000E+00
 -1      2165 2.26790E+02-7.45000E+02 5.00000E+00
 -1      2166 6.43050E+02-6.95000E+02 5.00000E+00
 -1      2167 6.36750E+02-7.45000E+02 5.00000E+00
 -1      2168 9.05000E+02-6.09460E+02 5.50000E+01
 -1      2169 6.24760E+02 7.45000E+02 5.00000E+00
 -1      2170-9.45000E+02-3.51910E+02 5.00000E+00
 -1      2171-9.95000E+02-3.50160E+02 5.00000E+00
 -1      2172 9.05000E+02-4.77610E+02 9.50000E+01
 -1      2173-9.45000E+02-2.08750E+02 9.50000E+01
 -1      2174-9.45000E+02-3.17300E+02 9.50000E+01
 -1      2175-9.05000E+02-2.91960E+02 9.50000E+01
 -1      2176-1.05539E+02 6.55000E+02 4.50000E+01
 -1      2177-6.02870E+02-7.45000E+02 4.50000E+01
 -1      2178 1.46455E+01 6.55000E+02 8.02000E+01
 -1      2179 7.17800E+01 7.45000E+02 5.50000E+01
 -1      2180 8.35289E+01 6.78478E+02 5.00000E+00
 -1      2181 6.30996E-01 6.33000E+02 1.61500E+01
 -1      2182 6.30996E-01 6.20375E+02 3.96282E+01
 -1      2183 6.30996E-01 5.43875E+02 7.34782E+01
 -1      2184 6.30996E-01 5.22125E+02 5.00000E+01
 -1      2185-1.86900E+00 5.30319E+02 7.34782E+01
 -1      2186 3.13100E+00 5.29194E+02 7.65218E+01
 -1      2187 1.26927E+02 7.18478E+02 5.00000E+00
 -1      2188 3.16000E+00 7.45000E+02 5.00000E+00
 -1      2189 6.30996E-01 5.56625E+02 5.00000E+01
 -1      2190 5.88495E+01 6.55000E+02 3.16928E+01
 -1      2191 2.37455E+01 6.55000E+02 2.11500E+01
 -1      2192-9.55000E+02 1.95450E+02 5.00000E+00
 -1      2193 4.41556E+02 6.95000E+02 5.00000E+00
 -1      2194 6.30996E-01 5.77250E+02 7.65218E+01
 -1      2195 6.04146E+01 6.55000E+02 5.00000E+00
 -1      2196 9.05000E+02-5.56810E+02 5.50000E+01
 -1      2197-1.76350E+02 7.45000E+02 5.00000E+00
 -1      2198-2.73945E+00 2.83388E+02 2.70768E+01
 -1      2199-2.73945E+00 2.48638E+02 7.70768E+01
 -1      2200-2.73945E+00 2.84638E+02 7.70768E+01
 -1      2201-8.37480E+02 7.45000E+02 9.50000E+01
 -1      2202 6.09760E+02 7.45000E+02 5.50000E+01
 -1      2203 7.05760E+02 7.45000E+02 5.50000E+01
 -1      2204 5.73130E+02 7.45000E+02 9.50000E+01
 -1      2205-3.18450E+02-6.55000E+02 5.50000E+01
 -1      2206-2.44740E+02-6.55000E+02 9.50000E+01
 -1      2207-9.05000E+02-2.06510E+02 5.50000E+01
 -1      2208-9.05000E+02-3.15060E+02 5.50000E+01
 -1      2209 6.30996E-01 6.03375E+02 2.34782E+01
 -1      2210 7.92147E+02 6.95000E+02 5.00000E+00
 -1      2211 2.88930E+02 7.45000E+02 9.50000E+01
 -1      2212 2.20094E+02 6.95000E+02 9.50000E+01
 -1      2213 9.45000E+02 1.19380E+02 9.50000E+01
 -1      2214-9.45000E+02 9.83000E+01 9.50000E+01
 -1      2215 6.10750E+02-7.45000E+02 5.50000E+01
 -1      2216-4.96560E+02-6.55000E+02 4.50000E+01
 -1      2217 5.26040E+02 7.05000E+02 5.00000E+00
 -1      2218 9.95000E+02-2.48550E+02 4.50000E+01
 -1      2219 1.19356E+00 2.51340E+02 6.76413E+01
 -1      2220 1.26891E-03 2.33760E+02 8.07598E+01
 -1      2221 3.13100E+00 2.27931E+02 6.64861E+01
 -1      2222 5.63831E-01 2.31989E+02 4.84011E+01
 -1      2223 3.69356E+00 2.26160E+02 3.41274E+01
 -1      2224 2.50127E+00 2.08579E+02 4.72459E+01
 -1      2225 9.05450E+02 7.45000E+02 9.50000E+01
 -1      2226 2.24930E+02 7.45000E+02 4.50000E+01
 -1      2227-6.67030E+02 7.45000E+02 4.50000E+01
 -1      2228 8.74195E+01 7.18307E+02 9.50000E+01
 -1      2229 7.24995E+01 6.78307E+02 9.50000E+01
 -1      2230 6.11245E+01 6.94793E+02 9.50000E+01
 -1      2231 1.35210E+02-7.45000E+02 9.50000E+01
 -1      2232 9.45000E+02 2.82680E+02 5.00000E+00
 -1      2233-6.90870E+02-7.45000E+02 4.50000E+01
 -1      2234 4.58136E+02 6.55000E+02 4.50000E+01
 -1      2235 9.95000E+02-3.34700E+01 5.00000E+00
 -1      2236 9.95000E+02-1.84700E+01 5.50000E+01
 -1      2237 9.55000E+02-2.29200E+02 9.50000E+01
 -1      2238 9.55000E+02-9.34500E+01 9.50000E+01
 -1      2239 9.05000E+02-1.88650E+02 9.50000E+01
 -1      2240 7.32050E+01 7.21486E+02 9.50000E+01
 -1      2241-9.05000E+02-2.94910E+02 5.00000E+00
 -1      2242-2.49873E+00 2.02186E+02 5.64848E+01
 -1      2243 2.50127E+00 2.08954E+02 6.42737E+01
 -1      2244 9.50000E+02 7.45000E+02 9.50000E+01
 -1      2245-2.49873E+00 2.19704E+02 3.07598E+01
 -1      2246 6.30996E-01 2.13875E+02 1.64861E+01
 -1      2247 9.05000E+02-6.55000E+02 5.00000E+00
 -1      2248-2.49873E+00 2.20204E+02 8.07598E+01
 -1      2249 6.30996E-01 2.14750E+02 8.35139E+01
 -1      2250 9.95000E+02-6.91750E+02 4.50000E+01
 -1      2251 9.95000E+02-7.45000E+02 4.50000E+01
 -1      2252-9.45000E+02-5.70500E+01 9.50000E+01
 -1      2253 8.50010E+02-7.45000E+02 5.50000E+01
 -1      2254 9.50000E+02 7.45000E+02 5.50000E+01
 -1      2255-9.05000E+02-5.54850E+02 5.50000E+01
 -1      2256 9.05000E+02 5.60060E+02 5.50000E+01
 -1      2257 7.37050E+00 6.71486E+02 5.00000E+00
 -1      2258 1.05550E+01 6.91016E+02 5.00000E+00
 -1      2259-8.20000E-01 6.74530E+02 5.00000E+00
 -1      2260 9.95498E-01 6.55000E+02 5.00000E+00
 -1      2261 2.37455E+01 6.55000E+02 5.00000E+00
 -1      2262 1.79640E+02-6.95000E+02 9.50000E+01
 -1      2263-4.75020E+02 7.45000E+02 4.50000E+01
 -1      2264 1.23705E+01 6.71486E+02 5.00000E+00
 -1      2265-1.48400E+01 7.14530E+02 5.00000E+00
 -1      2266 1.59599E+02 6.55000E+02 5.00000E+00
 -1      2267 2.07894E+02 6.55000E+02 5.50000E+01
 -1      2268 1.95373E+02 6.55000E+02 5.00000E+00
 -1      2269 5.39673E+02 6.55000E+02 5.00000E+00
 -1      2270 1.80813E+02 6.55000E+02 4.50000E+01
 -1      2271 8.93450E+02 7.45000E+02 4.50000E+01
 -1      2272 8.35450E+02 7.45000E+02 9.50000E+01
 -1      2273 4.67130E+02 7.45000E+02 9.50000E+01
 -1      2274 6.68170E+02 7.45000E+02 9.50000E+01
 -1      2275 9.05000E+02 2.09640E+02 4.50000E+01
 -1      2276 9.05000E+02 2.04360E+02 5.00000E+00
 -1      2277 1.40119E+02 6.95000E+02 5.00000E+00
 -1      2278-6.09644E+00 7.11486E+02 9.50000E+01
 -1      2279-2.40600E+01 7.45000E+02 9.50000E+01
 -1      2280 1.19400E+01 7.45000E+02 9.50000E+01
 -1      2281 9.55000E+02 1.94310E+02 5.00000E+00
 -1      2282 9.95000E+02 1.13530E+02 5.00000E+00
 -1      2283 9.95000E+02-1.80470E+02 5.00000E+00
 -1      2284 9.55000E+02-2.77890E+02 5.00000E+00
 -1      2285 9.05000E+02-3.18340E+02 5.50000E+01
 -1      2286 9.05000E+02-2.95900E+02 9.50000E+01
 -1      2287 9.05000E+02-2.95590E+02 5.00000E+00
 -1      2288 9.05000E+02 2.58390E+02 9.50000E+01
 -1      2289 9.55000E+02 2.04840E+02 9.50000E+01
 -1      2290 1.75893E+02 6.95000E+02 5.00000E+00
 -1      2291 9.05000E+02-3.33000E+01 9.50000E+01
 -1      2292 9.05000E+02 1.27740E+02 9.50000E+01
 -1      2293 2.12730E+02 7.05000E+02 5.00000E+00
 -1      2294 9.05000E+02 3.85770E+02 5.50000E+01
 -1      2295 5.74120E+02-7.45000E+02 9.50000E+01
 -1      2296-4.22850E+02-6.55000E+02 5.00000E+00
 -1      2297 3.13125E+00 3.16153E+02 2.44899E+01
 -1      2298 3.13125E+00 3.17403E+02 7.44899E+01
 -1      2299-1.86875E+00 3.16153E+02 2.44899E+01
 -1      2300 6.30996E-01 2.96750E+02 5.00000E+01
 -1      2301-4.61300E+02-7.45000E+02 5.00000E+00
 -1      2302 3.13125E+00 3.65653E+02 7.44899E+01
 -1      2303 6.72130E+02-7.45000E+02 9.50000E+01
 -1      2304 5.41980E+02-7.05000E+02 9.50000E+01
 -1      2305-2.15070E+02-7.45000E+02 9.50000E+01
 -1      2306-1.90461E+00 5.00513E+02 2.51267E+01
 -1      2307-1.90461E+00 4.99263E+02 7.51267E+01
 -1      2308-1.90461E+00 5.13138E+02 4.86050E+01
 -1      2309 1.79228E+01 7.11486E+02 9.50000E+01
 -1      2310-1.10600E+01 7.45000E+02 4.50000E+01
 -1      2311 2.49400E+01 7.45000E+02 4.50000E+01
 -1      2312 6.31249E-01 3.37783E+02 2.44899E+01
 -1      2313 3.13100E+00 3.66630E+02 5.00000E+01
 -1      2314 2.04229E+00 4.51955E+02 3.22011E+01
 -1      2315 6.30996E-01 4.53491E+02 5.00000E+01
 -1      2316 2.04229E+00 4.50705E+02 8.22011E+01
 -1      2317 4.54229E+00 4.73585E+02 3.22011E+01
 -1      2318 3.13100E+00 4.75120E+02 5.00000E+01
 -1      2319-1.30644E+00 2.37285E+02 1.76413E+01
 -1      2320 1.50670E+00 4.41284E+02 2.10791E+01
 -1      2321 2.91800E+00 4.38499E+02 5.32801E+01
 -1      2322 4.00670E+00 4.62914E+02 2.10791E+01
 -1      2323 5.59400E+01 7.45000E+02 9.50000E+01
 -1      2324 9.45000E+02-4.34700E+01 5.00000E+00
 -1      2325 9.05000E+02-1.40890E+02 5.00000E+00
 -1      2326 9.05000E+02 3.73100E+01 5.00000E+00
 -1      2327 9.55000E+02 4.73100E+01 5.00000E+00
 -1      2328-7.71060E+02-7.45000E+02 4.50000E+01
 -1      2329-1.86900E+00 5.93857E+02 2.34782E+01
 -1      2330 6.30996E-01 5.77750E+02 2.65218E+01
 -1      2331 3.13100E+00 5.29694E+02 2.65218E+01
 -1      2332 6.30996E-01 5.43250E+02 2.65218E+01
 -1      2333 6.30996E-01 5.09500E+02 2.65218E+01
 -1      2334 6.30996E-01 5.09375E+02 7.34782E+01
 -1      2335 3.09539E+00 4.99263E+02 7.51267E+01
 -1      2336 3.09539E+00 5.12013E+02 5.16485E+01
 -1      2337-1.92300E+02-7.45000E+02 5.50000E+01
 -1      2338-1.86900E+00 3.66630E+02 5.00000E+01
 -1      2339 6.30996E-01 3.96500E+02 5.00000E+01
 -1      2340 3.69356E+00 2.37785E+02 6.76413E+01
 -1      2341 1.19356E+00 2.50840E+02 1.76413E+01
 -1      2342 3.13100E+00 2.27431E+02 1.64861E+01
 -1      2343 3.13100E+00 5.93232E+02 7.65218E+01
 -1      2344-1.86875E+00 3.17403E+02 7.44899E+01
 -1      2345 9.05000E+02-1.18450E+02 4.50000E+01
 -1      2346 9.05000E+02-3.59105E+01 3.50136E+01
 -1      2347-2.84056E+00 4.64718E+02 2.32310E+01
 -1      2348-2.84056E+00 4.63468E+02 7.32310E+01
 -1      2349-3.40563E-01 4.43088E+02 2.32310E+01
 -1      2350-1.86900E+00 4.75120E+02 5.00000E+01
 -1      2351-2.84056E+00 4.12968E+02 7.32310E+01
 -1      2352-2.84056E+00 4.14968E+02 2.32310E+01
 -1      2353-1.86875E+00 3.65653E+02 7.44899E+01
 -1      2354 9.05000E+02 1.22460E+02 5.50000E+01
 -1      2355 9.05000E+02-2.11090E+02 5.50000E+01
 -1      2356 2.50127E+00 2.20204E+02 8.07598E+01
 -1      2357-8.69180E-01 2.42842E+02 5.78366E+01
 -1      2358-2.73945E+00 2.48138E+02 2.70768E+01
 -1      2359 3.23109E-01 2.60423E+02 4.47181E+01
 -1      2360 3.09539E+00 5.00513E+02 2.51267E+01
 -1      2361 5.95389E-01 4.77633E+02 7.51267E+01
 -1      2362 5.95389E-01 4.78883E+02 2.51267E+01
 -1      2363 4.54229E+00 4.72335E+02 8.22011E+01
 -1      2364 4.54229E+00 4.21835E+02 8.22011E+01
 -1      2365 4.54229E+00 4.23835E+02 3.22011E+01
 -1      2366 4.00670E+00 4.13164E+02 2.10791E+01
 -1      2367 9.05000E+02 4.25900E+01 4.50000E+01
 -1      2368 4.00670E+00 4.11164E+02 7.10791E+01
 -1      2369 2.15944E+00 4.12968E+02 7.32310E+01
 -1      2370 6.31249E-01 3.39033E+02 7.44899E+01
 -1      2371-9.93296E-01 4.13164E+02 2.10791E+01
 -1      2372 5.35145E-01 4.29632E+02 4.43101E+01
 -1      2373-3.40563E-01 4.41838E+02 7.32310E+01
 -1      2374 1.07073E+00 4.40303E+02 5.54321E+01
 -3
    3C                          1179                                     1
 -1      1165    6    0    1
 -2        26         7        55        29      1581       780      1583       631      1582      1584
 -1      1166    6    0    1
 -2        11        36       300        35      1585      1317      1586      1587       695       715
 -1      1167    6    0    1
 -2       232       331       158        42      1487      1588      1590      1591      1589      1034
 -1      1168    6    0    1
 -2       232        56       221        42      1592      1593      1210      1591       804      1594
 -1      1169    6    0    1
 -2       305       130        58       223      1595       885      1597      1339      1596      1598
 -1      1170    6    0    1
 -2       302        55       128       220      1599       882      1601      1359      1600      1602
 -1      1171    6    0    1
 -2        26         7         3        55      1581       402      1603      1583       780       419
 -1      1172    6    0    1
 -2       177        30        12       343      1604      1605       559      1606      1444      1607
 -1      1173    6    0    1
 -2        26         7       102         3      1581       474      1608      1603       402       849
 -1      1174    6    0    1
 -2       183       349       102       182      1609      1610      1011       565      1611      1010
 -1      1175    6    0    1
 -2        11        36        12       300      1585      1612       483      1586      1317      1613
 -1      1176    6    0    1
 -2        26         7        29       102      1581      1582       631      1608       474      1614
 -1      1177    6    0    1
 -2       130       222        58       223      1615      1616       885      1596       619      1598
 -1      1178    6    0    1
 -2       264        30        88        96      1295      1617      1619      1620      1618       834
 -1      1179    6    0    1
 -2       177        30         8        12      1604      1621      1005       559      1605      1004
 -1      1180    6    0    1
 -2       131       132       333       306       509      1622      1624      1625      1623      1563
 -1      1181    6    0    1
 -2       222       303       304       129      1393       719      1380      1627      1626      1628
 -1      1182    6    0    1
 -2       349        29       102       253      1452      1614      1610      1450       657      1629
 -1      1183    6    0    1
 -2       360       363        61       384       948       947       928      1631      1630      1632
 -1      1184    6    0    1
 -2       266       288       267       114      1505      1506       674      1634      1633      1635
 -1      1185    6    0    1
 -2        99       180       255       346      1048      1636      1638      1639      1637      1515
 -1      1186    6    0    1
 -2       344       256       345        98      1449      1448       764      1641      1640      1642
 -1      1187    6    0    1
 -2       227       377       202        46      1223      1222      1220      1644      1643      1645
 -1      1188    6    0    1
 -2       344       177        97       178      1646      1006      1647      1648       560      1007
 -1      1189    6    0    1
 -2        11        36       343        12      1585       762      1649       483      1612      1607
 -1      1190    6    0    1
 -2       284       270        83       271      1466      1650      1651      1463       678      1652
 -1      1191    6    0    1
 -2       312       166       311       339      1653      1654       727      1580      1655      1574
 -1      1192    6    0    1
 -2       325       324       352       144       742      1533      1534      1657      1656      1658
 -1      1193    6    0    1
 -2       152       319       347       318      1659      1548      1660      1661       735      1550
 -1      1194    6    0    1
 -2        31        23         1        54       640      1662      1664      1665      1663       781
 -1      1195    6    0    1
 -2       203       365       218       368      1137      1666      1668      1669      1667      1170
 -1      1196    6    0    1
 -2       107       320       252       154      1670      1357      1672       913      1671      1673
 -1      1197    6    0    1
 -2       319       251       107       320      1355      1674      1675       736      1356      1670
 -1      1198    6    0    1
 -2        60        45       224        59       796      1676      1677       424       788      1678
 -1      1199    6    0    1
 -2        11       300       117       126      1586      1679       862       503      1680       869
 -1      1200    6    0    1
 -2       177        30        97         8      1604      1681      1006      1005      1621       468
 -1      1201    6    0    1
 -2       257       256       344        98       661      1449      1446      1682      1640      1641
 -1      1202    6    0    1
 -2       226        62       384        25      1683      1684      1382       623      1685      1381
 -1      1203    6    0    1
 -2       247       104       248        98      1686      1687       651      1688       853      1689
 -1      1204    6    0    1
 -2       344       149       316       315      1690      1691      1542      1541      1692       732
 -1      1205    6    0    1
 -2        11        36        35       343      1585       695      1587      1649       762      1537
 -1      1206    6    0    1
 -2       392       162       391       335      1693      1694      1497      1498      1695      1510
 -1      1207    6    0    1
 -2        82       283       109       110      1696      1697       997       998      1698       485
 -1      1208    6    0    1
 -2        14        31        38       350      1699      1442      1700      1701      1453       770
 -1      1209    6    0    1
 -2       243       242       165        51       645      1702      1704      1705      1703      1019
 -1      1210    6    0    1
 -2       154       319       153       107      1706      1707       533       913      1675       914
 -1      1211    6    0    1
 -2       177        30       343        97      1604      1444      1606      1006      1681      1708
 -1      1212    6    0    1
 -2       353       326       325       145      1535       743      1536      1710      1709      1711
 -1      1213    6    0    1
 -2       361       385        63       362      1712      1713       931       951      1714       933
 -1      1214    6    0    1
 -2        26       127         3        15      1715       880      1603      1716       504       881
 -1      1215    6    0    1
 -2        43       222       230        58      1717      1213      1718       785      1616      1719
 -1      1216    6    0    1
 -2        26       108       155         3      1720       915      1721      1603       481       917
 -1      1217    6    0    1
 -2       227        46        47       391      1644       410      1723      1481      1722      1724
 -1      1218    6    0    1
 -2        16       329       301       156      1725      1554      1727       536      1726      1728
 -1      1219    6    0    1
 -2       118        22        89       292      1729      1730       921      1731      1371      1732
 -1      1220    6    0    1
 -2       251       252       253       107       655      1281      1280      1674      1672      1733
 -1      1221    6    0    1
 -2       118        22         2        89      1729      1734       907       921      1730       459
 -1      1222    6    0    1
 -2        69       314       238        23      1735      1351      1736      1737      1397       639
 -1      1223    6    0    1
 -2       237       313        68       312      1349      1738      1739      1348       728      1740
 -1      1224    6    0    1
 -2       348       154       320       319      1741      1671      1544      1547      1706       736
 -1      1225    6    0    1
 -2       126       300       117       291      1680      1679       869      1742      1326      1743
 -1      1226    6    0    1
 -2       220       303       128       302      1392      1744      1602      1359       718      1601
 -1      1227    6    0    1
 -2       254       255       250       100       659      1287      1286      1746      1745      1747
 -1      1228    6    0    1
 -2       132       363       306        60       954      1748      1623       927       950      1749
 -1      1229    6    0    1
 -2       327       326       354       146       744      1531      1527      1751      1750      1752
 -1      1230    6    0    1
 -2       354       174       355       146      1753      1754       775      1752      1060      1755
 -1      1231    6    0    1
 -2       118        22         9         2      1729      1756       494       907      1734       905
 -1      1232    6    0    1
 -2       208       401       215       373      1757      1758      1155      1205      1759      1760
 -1      1233    6    0    1
 -2       157       302       128       330      1761      1601      1088      1762      1556      1763
 -1      1234    6    0    1
 -2        29       220        41        55      1208      1764      1765      1584      1600       782
 -1      1235    6    0    1
 -2       271        90       270        83      1766      1767       678      1652       837      1650
 -1      1236    6    0    1
 -2        75       176       355       175       995      1768      1769       994       557      1770
 -1      1237    6    0    1
 -2       118        22       292         9      1729      1371      1731       494      1756      1771
 -1      1238    6    0    1
 -2        62       387       384        25      1772      1425      1684      1685      1419      1381
 -1      1239    6    0    1
 -2        62        61       226       384       426      1773      1683      1684      1632      1382
 -1      1240    6    0    1
 -2       303       220        56       221      1392      1774      1775      1399       617      1593
 -1      1241    6    0    1
 -2       385        63       362       233      1713       933      1714      1383      1776      1777
 -1      1242    6    0    1
 -2        60       363       306       225       950      1748      1749      1779      1778      1342
 -1      1243    6    0    1
 -2        29       183         7        16      1780      1012      1582      1781       566       973
 -1      1244    6    0    1
 -2       305       131       306        59      1782      1625       721      1783       887      1784
 -1      1245    6    0    1
 -2       278       356        75        32      1458      1785      1786       688      1461      1787
 -1      1246    6    0    1
 -2       107       252       320       251      1672      1357      1670      1674       655      1356
 -1      1247    6    0    1
 -2       305       130       223       304      1595      1596      1339       720      1788      1338
 -1      1248    6    0    1
 -2        29       183       102         7      1780      1011      1614      1582      1012       474
 -1      1249    6    0    1
 -2       333       131       332       160      1624      1789       751      1790      1090      1791
 -1      1250    6    0    1
 -2       229        45        59       224      1792       788      1793      1216      1676      1678
 -1      1251    6    0    1
 -2        21         8         4        97      1794       450      1795      1796       468       848
 -1      1252    6    0    1
 -2        21         8        96         4      1794       833      1797      1795       450       467
 -1      1253    6    0    1
 -2       307       132       306       334      1798      1623       722      1565      1799      1564
 -1      1254    6    0    1
 -2       283        10        34        32      1800      1801       696      1462      1802      1460
 -1      1255    6    0    1
 -2        26       127        55         3      1715       883      1583      1603       880       419
 -1      1256    6    0    1
 -2        46        47       358       202       410       807       806      1645      1803      1804
 -1      1257    6    0    1
 -2        21         8        30        96      1794      1621       663      1797       833      1618
 -1      1258    6    0    1
 -2        29       183       349       102      1780      1609      1452      1614      1011      1610
 -1      1259    6    0    1
 -2       283        10       292        34      1800      1805      1318       696      1801      1316
 -1      1260    6    0    1
 -2        29       183        16       349      1780       566      1781      1452      1609      1806
 -1      1261    6    0    1
 -2       117        12         8        30       493      1004      1003      1807      1605      1621
 -1      1262    6    0    1
 -2        21         8        97        30      1794       468      1796       663      1621      1681
 -1      1263    6    0    1
 -2        41         7        29        55       404      1582      1765       782       780      1584
 -1      1264    6    0    1
 -2       310        65       309       136      1808      1809       725      1810       888      1811
 -1      1265    6    0    1
 -2       302        55       220        26      1599      1600      1359      1337      1583       616
 -1      1266    6    0    1
 -2       283        10       109       292      1800       484      1697      1318      1805      1812
 -1      1267    6    0    1
 -2        16        40        29       349      1813      1427      1781      1806       769      1452
 -1      1268    6    0    1
 -2        70        31       350       282      1814      1453      1815      1816       693      1455
 -1      1269    6    0    1
 -2        16        40       329        29      1813       747      1725      1781      1427      1426
 -1      1270    6    0    1
 -2       283        10        32       109      1800      1802      1462      1697       484      1817
 -1      1271    6    0    1
 -2        94        95       263        87       465      1818      1819       841       838      1820
 -1      1272    6    0    1
 -2        26       127        15       301      1715       504      1716      1336      1821      1822
 -1      1273    6    0    1
 -2       252       154       155       108      1673       534      1823      1824       916       915
 -1      1274    6    0    1
 -2         9        33       148        22      1825      1826       527      1756      1370      1827
 -1      1275    6    0    1
 -2       336       364       389       163      1828      1829      1490      1830      1035      1831
 -1      1276    6    0    1
 -2        53       341       240       167      1832      1438      1834       985      1833      1835
 -1      1277    6    0    1
 -2       358       218       202       357      1836      1837      1804       810      1838      1839
 -1      1278    6    0    1
 -2       169        31         5        54      1840      1841       989       988      1665       418
 -1      1279    6    0    1
 -2         9        33        22       292      1825      1370      1756      1771       706      1371
 -1      1280    6    0    1
 -2       169        31        14         5      1840      1699       550       989      1841       990
 -1      1281    6    0    1
 -2       252       155       154       320      1823       534      1673      1357      1842      1671
 -1      1282    6    0    1
 -2       336       389       364       390      1490      1829      1828      1509      1480      1843
 -1      1283    6    0    1
 -2        62       203       226        61      1844      1219      1683       426      1845      1773
 -1      1284    6    0    1
 -2        94        95       124       263       465       946       958      1819      1818      1846
 -1      1285    6    0    1
 -2        56       303       221       129      1775      1399      1593       941      1626      1847
 -1      1286    6    0    1
 -2       264        30       265        88      1295       672      1294      1619      1617      1848
 -1      1287    6    0    1
 -2       169        31       342        14      1840      1443      1849       550      1699      1850
 -1      1288    6    0    1
 -2       293       283       284       110      1319       697      1320      1851      1698      1852
 -1      1289    6    0    1
 -2        91        84       269       270       842      1853      1855      1856      1854       677
 -1      1290    6    0    1
 -2       254       348       181       101      1502      1857      1859      1860      1858      1027
 -1      1291    6    0    1
 -2       333       332       131       305       751      1789      1624      1562      1561      1782
 -1      1292    6    0    1
 -2       182       253       349       102      1861      1450      1611      1010      1629      1610
 -1      1293    6    0    1
 -2       169        31        54       342      1840      1665       988      1849      1443      1862
 -1      1294    6    0    1
 -2       222        57        43       231      1863       784      1717      1212      1864      1865
 -1      1295    6    0    1
 -2        54       238        68       239      1866      1867       809      1868      1264      1869
 -1      1296    6    0    1
 -2        54       238        69        68      1866      1736       795       809      1867       433
 -1      1297    6    0    1
 -2       358       218       203       202      1836      1668      1870      1804      1837       594
 -1      1298    6    0    1
 -2        22        89       292       258      1730      1732      1371       664      1871      1372
 -1      1299    6    0    1
 -2        11        35       300        21      1587       715      1586      1872      1353      1378
 -1      1300    6    0    1
 -2       290        88       115       265      1873      1041      1874      1468      1848      1875
 -1      1301    6    0    1
 -2       358       218        62       203      1836      1876       797      1870      1668      1844
 -1      1302    6    0    1
 -2       346       318       151       180      1551      1877      1879      1637      1878      1082
 -1      1303    6    0    1
 -2       305       131       333       306      1782      1624      1562       721      1625      1563
 -1      1304    6    0    1
 -2       358       218       357        62      1836      1838       810       797      1876       800
 -1      1305    6    0    1
 -2       142       171       170       350      1057       552      1058      1881      1880      1882
 -1      1306    6    0    1
 -2       223       305       224        59      1339      1340       620      1883      1783      1678
 -1      1307    6    0    1
 -2       125        96       299       264       909      1884      1885      1886      1620      1377
 -1      1308    6    0    1
 -2        54       238        23        69      1866       639      1663       795      1736      1737
 -1      1309    6    0    1
 -2       227       392        46       391      1484      1887      1644      1481      1497      1722
 -1      1310    6    0    1
 -2         2         9       148        22       905       527       906      1734      1756      1827
 -1      1311    6    0    1
 -2       227       392       228        46      1484      1483       625      1644      1887      1888
 -1      1312    6    0    1
 -2       125        96       126       299       909       908       502      1885      1884      1889
 -1      1313    6    0    1
 -2        43       159       332       231       977      1890      1892      1865      1891      1430
 -1      1314    6    0    1
 -2       170        31         5        14      1893      1841       991       551      1699       990
 -1      1315    6    0    1
 -2       162       161       133       334       542      1095      1094      1895      1894      1896
 -1      1316    6    0    1
 -2       149       103        21         4       918      1897      1898       912       475      1795
 -1      1317    6    0    1
 -2        96        21       299       264      1797      1388      1884      1620       671      1377
 -1      1318    6    0    1
 -2       377        60       225        61      1899      1779      1226      1900       425      1901
 -1      1319    6    0    1
 -2        24       385       233        63      1384      1383       633      1902      1713      1776
 -1      1320    6    0    1
 -2       227       228       377        46       625      1225      1223      1644      1888      1643
 -1      1321    6    0    1
 -2       293       259       258        90      1374       665      1373      1904      1903      1905
 -1      1322    6    0    1
 -2        12       291        30       117      1906      1469      1605       493      1743      1807
 -1      1323    6    0    1
 -2       293       259        90       294      1374      1903      1904       708      1375      1907
 -1      1324    6    0    1
 -2        54       238       239        23      1866      1264      1868      1663       639      1265
 -1      1325    6    0    1
 -2       278        74       276       277      1908      1909      1307      1308      1910       686
 -1      1326    6    0    1
 -2       117       291        30        88      1743      1469      1807      1002      1911      1617
 -1      1327    6    0    1
 -2       254       106       100       250      1912       859      1746      1286      1913      1747
 -1      1328    6    0    1
 -2       164       310       337       309      1914      1571      1915      1916       725      1570
 -1      1329    6    0    1
 -2       162       334       133       335      1895      1896      1094      1695       753      1917
 -1      1330    6    0    1
 -2       347       346       180       318       766      1637      1918      1550      1551      1878
 -1      1331    6    0    1
 -2       339       242       241        51      1470       644      1471      1919      1703      1920
 -1      1332    6    0    1
 -2       183        16       349       321       566      1806      1609      1922      1921      1539
 -1      1333    6    0    1
 -2        82       258        22       271      1923       664      1924      1925      1290      1289
 -1      1334    6    0    1
 -2       254       348       347       181      1502       767      1503      1859      1857      1926
 -1      1335    6    0    1
 -2       341       342       313       168       760      1577      1576      1928      1927      1929
 -1      1336    6    0    1
 -2       242       243        66        51       645      1930      1931      1703      1705       794
 -1      1337    6    0    1
 -2       182       349       253       348      1611      1450      1861      1932       768      1451
 -1      1338    6    0    1
 -2       290        88       116       115      1873      1001      1933      1874      1041       491
 -1      1339    6    0    1
 -2       346       179       151       317      1934      1079      1879      1549      1935      1936
 -1      1340    6    0    1
 -2       263       297       124        94      1401      1937      1846      1819      1938       958
 -1      1341    6    0    1
 -2        12       291        36        30      1906       705      1612      1605      1469      1445
 -1      1342    6    0    1
 -2        82       258        89        22      1923      1871       835      1924       664      1730
 -1      1343    6    0    1
 -2       234       310        65       309      1345      1808      1939      1344       725      1809
 -1      1344    6    0    1
 -2       118        89       293       292       921      1940      1941      1731      1732       707
 -1      1345    6    0    1
 -2       157       329       330        41      1942       748      1762       976      1943      1944
 -1      1346    6    0    1
 -2       103         4        97        21       475       848       851      1897      1795      1796
 -1      1347    6    0    1
 -2        12       291       300        36      1906      1326      1613      1612       705      1317
 -1      1348    6    0    1
 -2       152       347       180       318      1660      1918      1084      1661      1550      1878
 -1      1349    6    0    1
 -2       162       161       334       392       542      1894      1895      1693      1945      1499
 -1      1350    6    0    1
 -2       317       150       248       316      1946      1947      1390       733      1948      1389
 -1      1351    6    0    1
 -2       332       231       230        43      1430       628      1433      1892      1865      1718
 -1      1352    6    0    1
 -2       296       261       122        93      1422      1949      1951      1952      1950       967
 -1      1353    6    0    1
 -2       242        66       243       235      1931      1930       645      1268      1953      1261
 -1      1354    6    0    1
 -2       276       327        80       146      1366      1954      1955      1956      1751       902
 -1      1355    6    0    1
 -2       234       310       235        65      1345      1346       635      1939      1808      1957
 -1      1356    6    0    1
 -2       322       142       141       170      1958       520      1959      1960      1058      1056
 -1      1357    6    0    1
 -2       300       126       299       291      1680      1889       714      1326      1742      1325
 -1      1358    6    0    1
 -2       170        31        70         5      1893      1814      1014       991      1841       436
 -1      1359    6    0    1
 -2       107       106       101       251       479       858       855      1674      1961      1962
 -1      1360    6    0    1
 -2        12       291       117       300      1906      1743       493      1613      1326      1679
 -1      1361    6    0    1
 -2       151       318       346       317      1877      1551      1879      1936       734      1549
 -1      1362    6    0    1
 -2        82       258        90        89      1923      1905       836       835      1871       460
 -1      1363    6    0    1
 -2       259       269       270        91      1296       677      1292      1963      1855      1856
 -1      1364    6    0    1
 -2       336       337       163       389       755      1964      1830      1490      1489      1831
 -1      1365    6    0    1
 -2       356       176       355        75      1965      1768       776      1785       995      1769
 -1      1366    6    0    1
 -2        21       126         4        96      1966       911      1795      1797       908       467
 -1      1367    6    0    1
 -2       170        31       350        70      1893      1453      1882      1014      1814      1815
 -1      1368    6    0    1
 -2       306       305        59       224       721      1783      1784      1341      1340      1678
 -1      1369    6    0    1
 -2       243       165       242       338      1704      1702       645      1436      1967      1472
 -1      1370    6    0    1
 -2        82       258       271        90      1923      1290      1925       836      1905      1766
 -1      1371    6    0    1
 -2       316       178       150       149      1968      1076      1948      1691      1073       529
 -1      1372    6    0    1
 -2       263       297       298       124      1401       712      1387      1846      1937      1969
 -1      1373    6    0    1
 -2       242        51       236       241      1703      1970      1267       644      1920      1266
 -1      1374    6    0    1
 -2       331       231       332       159      1431      1430       750      1971      1891      1890
 -1      1375    6    0    1
 -2       316       178       345       150      1968      1972      1543      1948      1076      1973
 -1      1376    6    0    1
 -2       154       183       182       320      1077       565      1078      1671      1974      1975
 -1      1377    6    0    1
 -2       337       388       163       389      1511      1976      1964      1489      1477      1831
 -1      1378    6    0    1
 -2       316       178       344       345      1968      1648      1542      1543      1972       764
 -1      1379    6    0    1
 -2       316       178       149       344      1968      1073      1691      1542      1648      1690
 -1      1380    6    0    1
 -2        27       227        47       391       624      1723      1977      1482      1481      1724
 -1      1381    6    0    1
 -2        27       202       219        47       593      1978      1979      1977      1803      1980
 -1      1382    6    0    1
 -2       170        31        14       350      1893      1699       551      1882      1453      1701
 -1      1383    6    0    1
 -2       161       228       229       334      1981       626      1982      1894      1485      1434
 -1      1384    6    0    1
 -2       108        26       102         3      1720      1608       850       481      1603       849
 -1      1385    6    0    1
 -2       161       228        45       229      1981      1983      1031      1982       626      1792
 -1      1386    6    0    1
 -2       368       204       203       195      1149      1984      1669      1985      1182      1131
 -1      1387    6    0    1
 -2       356       176       148       328      1965      1063      1987      1530      1986      1988
 -1      1388    6    0    1
 -2       117       116       125       291       492       868       867      1743      1989      1990
 -1      1389    6    0    1
 -2       176       356       355       328      1965       776      1768      1986      1530      1529
 -1      1390    6    0    1
 -2       377       358       202        46      1991      1804      1222      1643       806      1645
 -1      1391    6    0    1
 -2       128       302       303       330      1601       718      1744      1763      1556      1557
 -1      1392    6    0    1
 -2       149       150       247       103       529      1992      1993       918       919      1994
 -1      1393    6    0    1
 -2       155       252       321       320      1823      1358      1995      1842      1357       737
 -1      1394    6    0    1
 -2        21       126        11         4      1966       503      1872      1795       911       910
 -1      1395    6    0    1
 -2        21       126       300        11      1966      1680      1378      1872       503      1586
 -1      1396    6    0    1
 -2       102       107       253       252       856      1733      1629      1996      1672      1281
 -1      1397    6    0    1
 -2       161       228       334       392      1981      1485      1894      1945      1483      1499
 -1      1398    6    0    1
 -2        70        23        76         1      1997      1998       820       816      1662       443
 -1      1399    6    0    1
 -2       392       334       162       335      1499      1895      1693      1498       753      1695
 -1      1400    6    0    1
 -2        56        41       232       220       813      1999      1592      1774      1764      1209
 -1      1401    6    0    1
 -2        47       357       358       202       789       810       807      1803      1839      1804
 -1      1402    6    0    1
 -2       171        70       170       350      1021      1014       552      1880      1815      1882
 -1      1403    6    0    1
 -2       267       113       114       287      2000       489      1635      1519      2001      2002
 -1      1404    6    0    1
 -2       294       121       112       286      2003       874      2005      1328      2004      2006
 -1      1405    6    0    1
 -2       174       279       355        74      2007      1456      1754       992      2008      2009
 -1      1406    6    0    1
 -2       126       125       299       291       502      1885      1889      1742      1990      1325
 -1      1407    6    0    1
 -2       365       203       195       368      1137      1131      1132      1667      1669      1985
 -1      1408    6    0    1
 -2       225        60       224       306      1779      1677       621      1342      1749      1341
 -1      1409    6    0    1
 -2       149       247       316       315      1993      1379      1691      1692      1360       732
 -1      1410    6    0    1
 -2       184       210       187        17      1160      2010      1115       570       603      1114
 -1      1411    6    0    1
 -2       107       106       251       319       479      1961      1674      1675      2011      1355
 -1      1412    6    0    1
 -2       273        77       282       272      2012      2013      1306       682      2014      1305
 -1      1413    6    0    1
 -2       343       344       177        97       763      1646      1606      1708      1647      1006
 -1      1414    6    0    1
 -2        57       221        42       231      2015      1594       783      1864      1211      2016
 -1      1415    6    0    1
 -2       358        62        61       203       797       426       798      1870      1844      1845
 -1      1416    6    0    1
 -2       344       343       257        97       763      1447      1446      1647      1708      2017
 -1      1417    6    0    1
 -2       148        22       328        81      1827      1369      1988       903      2018      2019
 -1      1418    6    0    1
 -2       132       307       306       363      1798       722      1623       954      2020      1748
 -1      1419    6    0    1
 -2       232       231        42       221       629      2016      1591      1210      1211      1594
 -1      1420    6    0    1
 -2       247       248       150       316       651      1947      1992      1379      1389      1948
 -1      1421    6    0    1
 -2        51        52       236       241       415      2021      1970      1920      2022      1266
 -1      1422    6    0    1
 -2       329       302       157       330      1555      1761      1942       748      1556      1762
 -1      1423    6    0    1
 -2       290        88       291       116      1873      1911       704      1933      1001      1989
 -1      1424    6    0    1
 -2       203       365       202       218      1137      1140       594      1668      1666      1837
 -1      1425    6    0    1
 -2       390        48       246       389      2023      2024      1479      1480      2025      1475
 -1      1426    6    0    1
 -2       290        88       265       291      1873      1848      1468       704      1911      1467
 -1      1427    6    0    1
 -2       142       322       272       323      1958      1361      2026      2027       740      1362
 -1      1428    6    0    1
 -2       230       332       160       333      1433      1791      2028      1432       751      1790
 -1      1429    6    0    1
 -2       351       171       282        71      2029      2030      1454      2031      1022      2032
 -1      1430    6    0    1
 -2       174       355       279       354      1754      1456      2007      1753       775      1457
 -1      1431    6    0    1
 -2       170        14       322       350       551      2033      1960      1882      1701      1524
 -1      1432    6    0    1
 -2       108        26       155       252      1720      1721       915      1824       656      1823
 -1      1433    6    0    1
 -2       267       113        86       114      2000      1053      2034      1635       489      1050
 -1      1434    6    0    1
 -2       121       122       113       287       498       879       877      2036      2035      2001
 -1      1435    6    0    1
 -2       170       322        14       141      1960      2033       551      1056      1959      1054
 -1      1436    6    0    1
 -2       388       244        49       245      1474      2037      2038      1473       647      2039
 -1      1437    6    0    1
 -2       268       261        85        92      1302      2040      2042      2043      2041       846
 -1      1438    6    0    1
 -2       286       285       112       294       699      2044      2006      1328      1327      2005
 -1      1439    6    0    1
 -2        91        92       269        84       462      2045      1855       842       844      1853
 -1      1440    6    0    1
 -2       312       166       339       340      1653      1655      1580      1579      2046       758
 -1      1441    6    0    1
 -2       329       302       156       157      1555      2047      1726      1942      1761       537
 -1      1442    6    0    1
 -2       107       106       319       153       479      2011      1675       914       963      1707
 -1      1443    6    0    1
 -2       307       360       363       133      2048       948      2020      2049       943       949
 -1      1444    6    0    1
 -2       117       116       291        88       492      1989      1743      1002      1001      1911
 -1      1445    6    0    1
 -2        70        31         1         5      1814      1664       816       436      1841       403
 -1      1446    6    0    1
 -2       294       121       295       260      2003      2050       709      1402      2051      1403
 -1      1447    6    0    1
 -2       294       121       286       295      2003      2004      1328       709      2050      1331
 -1      1448    6    0    1
 -2       149       247       150       316      1993      1992       529      1691      1379      1948
 -1      1449    6    0    1
 -2       324       172       352       144      2052      2053      1533      1656      1067      1658
 -1      1450    6    0    1
 -2        51       242       236        66      1703      1267      1970       794      1931      2054
 -1      1451    6    0    1
 -2        59       306        60       132      1784      1749       424       886      1623       927
 -1      1452    6    0    1
 -2       187       185       367       184      1118      2055      1138      1115       571      2056
 -1      1453    6    0    1
 -2        13       322        14        37      2057      2033       567      2058       739      2059
 -1      1454    6    0    1
 -2        13       322       141        14      2057      1959       519       567      2033      1054
 -1      1455    6    0    1
 -2       368       203       204       218      1669      1984      1149      1170      1668      1147
 -1      1456    6    0    1
 -2       147       277        81       328      2060      2061       904      2062      1368      2019
 -1      1457    6    0    1
 -2       267       113       287       268      2000      2001      1519       675      2063      1517
 -1      1458    6    0    1
 -2       283        82       109        32      1696       997      1697      1462      2064      1817
 -1      1459    6    0    1
 -2         2       148        81        22       906       903       449      1734      1827      2018
 -1      1460    6    0    1
 -2       384       225        61       226      1410      1901      1632      1382       622      1773
 -1      1461    6    0    1
 -2        91       269        92       260      1855      2045       462      2065      1297      2066
 -1      1462    6    0    1
 -2       329       157       156        41      1942       537      1726      1943       976       975
 -1      1463    6    0    1
 -2       281       282        71       351       692      2032      2067      1491      1454      2031
 -1      1464    6    0    1
 -2        29       252        26       102      1282       656       631      1614      1996      1608
 -1      1465    6    0    1
 -2        39        16        15       321      2068       568      2069       738      1921      2070
 -1      1466    6    0    1
 -2       390        48       389       364      2023      2025      1480      1843      1015      1829
 -1      1467    6    0    1
 -2       187       185       186       367      1118      1117       575      1138      2055      1139
 -1      1468    6    0    1
 -2       101       348       182       253      1858      1932      1013      2071      1451      1861
 -1      1469    6    0    1
 -2        23        69         1        54      1737       434      1662      1663       795       781
 -1      1470    6    0    1
 -2       358       377       202       203      1991      1222      1804      1870      1221       594
 -1      1471    6    0    1
 -2       300        11       117        12      1586       862      1679      1613       483       493
 -1      1472    6    0    1
 -2       234       383       233        64      1259      1258       634      2073      2072      2074
 -1      1473    6    0    1
 -2        13       322         1       141      2057      2075       894       519      1959       896
 -1      1474    6    0    1
 -2       283       271        82        32      1464      1925      1696      1462       679      2064
 -1      1475    6    0    1
 -2       384       225       363        61      1410      1778      1630      1632      1901       947
 -1      1476    6    0    1
 -2       166       165       137       311       546      1103      1102      1654      2076      2077
 -1      1477    6    0    1
 -2        88        95       265       264       839      2078      1848      1619      2079      1294
 -1      1478    6    0    1
 -2       251       106       254       250      1961      1912      1284       654      1913      1286
 -1      1479    6    0    1
 -2       347       153       181       348      2080      1081      1926       767      2081      1857
 -1      1480    6    0    1
 -2        29       156        41       329      2082       975      1765      1426      1726      1943
 -1      1481    6    0    1
 -2       347       255       180       346      1514      1636      1918       766      1515      1637
 -1      1482    6    0    1
 -2       247       150       248       104      1992      1947       651      1686       920      1687
 -1      1483    6    0    1
 -2       347       153       152       181      2080       532      1660      1926      1081      1083
 -1      1484    6    0    1
 -2       154       348       153       319      1741      2081       533      1706      1547      1707
 -1      1485    6    0    1
 -2       130       305       332       304      1595      1561      2083      1788       720      1560
 -1      1486    6    0    1
 -2       123       289       288       297      2084       702      2085      2086      1329      1330
 -1      1487    6    0    1
 -2       229       333       230        44      1435      1432       627      2088      2087      2089
 -1      1488    6    0    1
 -2       239       341       240        53      1441      1438       642      2090      1832      1834
 -1      1489    6    0    1
 -2       347       153       319       152      2080      1707      1548      1660       532      1659
 -1      1490    6    0    1
 -2       220       128       303        56      1602      1744      1392      1774       937      1775
 -1      1491    6    0    1
 -2        29       156         7        41      2082       974      1582      1765       975       404
 -1      1492    6    0    1
 -2        21       247       149       315       650      1993      1898      1354      1360      1692
 -1      1493    6    0    1
 -2       222       230        58       223      1213      1719      1616       619      1214      1598
 -1      1494    6    0    1
 -2       347       153       348       319      2080      2081       767      1548      1707      1547
 -1      1495    6    0    1
 -2       131       132       306        59       509      1623      1625       887       886      1784
 -1      1496    6    0    1
 -2       112       269        84       285      2091      1853      1040      2044      1495      2092
 -1      1497    6    0    1
 -2        29       156        16         7      2082       536      1781      1582       974       973
 -1      1498    6    0    1
 -2       112       269        85        84      2091      2093      1051      1040      1853       454
 -1      1499    6    0    1
 -2       244       234        65        49      1276      1939      2095      2037      2094       791
 -1      1500    6    0    1
 -2       279       276       278        74      1310      1307       689      2008      1909      1908
 -1      1501    6    0    1
 -2       327       147       355       328      2096      2097      1528       745      2062      1529
 -1      1502    6    0    1
 -2       192       216       215       400      1245       609      1246      2099      2098      2100
 -1      1503    6    0    1
 -2       125       264       299       298      1886      1377      1885      2101      1376       713
 -1      1504    6    0    1
 -2        39        16       301        15      2068      1727       716      2069       568      1822
 -1      1505    6    0    1
 -2       110       111        83       284       486      1000       999      1852      2102      1651
 -1      1506    6    0    1
 -2        58       230        44       223      1719      2089       786      1598      1214      2103
 -1      1507    6    0    1
 -2        39        16        40       301      2068      1813       779       716      1727      1552
 -1      1508    6    0    1
 -2       322       142       272        76      1958      2026      1361      2104       897      2105
 -1      1509    6    0    1
 -2       234       244       383        49      1276      1269      1259      2094      2037      2106
 -1      1510    6    0    1
 -2        62       384       361       360      1684      2107       930       929      1631       932
 -1      1511    6    0    1
 -2        62       361       384       387       930      2107      1684      1772      2108      1425
 -1      1512    6    0    1
 -2       182       153       154       348      1080       533      1078      1932      2081      1741
 -1      1513    6    0    1
 -2       125       126       117       291       502       869       867      1990      1742      1743
 -1      1514    6    0    1
 -2       110       111       293       119       486      2109      1851       866       865      2110
 -1      1515    6    0    1
 -2       385       387       361        63      1424      2108      1712      1713      2111       931
 -1      1516    6    0    1
 -2        89       293       292       258      1940       707      1732      1871      1373      1372
 -1      1517    6    0    1
 -2       115       290       265       289      1874      1468      1875      2112       703      1493
 -1      1518    6    0    1
 -2       112       269       286        85      2091      1494      2006      1051      2093      2113
 -1      1519    6    0    1
 -2       110       111       284       293       486      2102      1852      1851      2109      1320
 -1      1520    6    0    1
 -2       155        16       321        15      1071      1921      1995       535       568      2070
 -1      1521    6    0    1
 -2       112       269       285       286      2091      1495      2044      2006      1494       699
 -1      1522    6    0    1
 -2       305       130       131        58      1595       508      1782      1597       885       884
 -1      1523    6    0    1
 -2       130       305       131       332      1595      1782       508      2083      1561      1789
 -1      1524    6    0    1
 -2       387        62       361        63      1772       930      2108      2111       427       931
 -1      1525    6    0    1
 -2       322       314         1        23      1352      2114      2075      1398      1397      1662
 -1      1526    6    0    1
 -2        39        16       321        40      2068      1921       738       779      1813      1538
 -1      1527    6    0    1
 -2        61       377       203       226      1900      1221      1845      1773      1224      1219
 -1      1528    6    0    1
 -2       356        33       328       148      1523       746      1530      1987      1826      1988
 -1      1529    6    0    1
 -2       350       171       323       142      1880      2115      1525      1881      1057      2027
 -1      1530    6    0    1
 -2        61       203       377       358      1845      1221      1900       798      1870      1991
 -1      1531    6    0    1
 -2        64       357       233        63       801      2116      2074       428       799      1776
 -1      1532    6    0    1
 -2        96        88         8        30       834       458       833      1618      1617      1621
 -1      1533    6    0    1
 -2       154       183       320       155      1077      1974      1671       534      1072      1842
 -1      1534    6    0    1
 -2        29       156       329        16      2082      1726      1426      1781       536      1725
 -1      1535    6    0    1
 -2       166       165       339        51       546      2117      1655      1024      1019      1919
 -1      1536    6    0    1
 -2       194       371       185       217      2118      1172      2119      1228      1167      1168
 -1      1537    6    0    1
 -2        64       233       357       383      2074      2116       801      2072      1258      2120
 -1      1538    6    0    1
 -2       309       234       135        65      1344      2121      2122      1809      1939       889
 -1      1539    6    0    1
 -2        32        10        34       356      1802      1801      1460      1461      2123       777
 -1      1540    6    0    1
 -2       350       323       171       351      1525      2115      1880       771      1526      2029
 -1      1541    6    0    1
 -2       155        16       183       321      1071       566      1072      1995      1921      1922
 -1      1542    6    0    1
 -2        77       273       143       323      2012      2124       899      2125      1363      2126
 -1      1543    6    0    1
 -2       239       240        68        53       642      2127      1869      2090      1834       812
 -1      1544    6    0    1
 -2        67        68       237       240       432      1739      2128      2129      2127      1262
 -1      1545    6    0    1
 -2       220       232        56       221      1209      1592      1774       617      1210      1593
 -1      1546    6    0    1
 -2       233        63       362        64      1776       933      1777      2074       428       934
 -1      1547    6    0    1
 -2       348       154       182       320      1741      1078      1932      1544      1671      1975
 -1      1548    6    0    1
 -2       289       266       265        87      1496       673      1493      2131      2130      2132
 -1      1549    6    0    1
 -2        58       305        59       131      1597      1783       423       884      1782       887
 -1      1550    6    0    1
 -2       334       132       161       133      1799      1092      1894      1896       510      1095
 -1      1551    6    0    1
 -2        59        60       306       224       424      1749      1784      1678      1677      1341
 -1      1552    6    0    1
 -2        77       273       323       272      2012      1363      2125      2014       682      1362
 -1      1553    6    0    1
 -2        96        95       264       125       466      2079      1620       909       938      1886
 -1      1554    6    0    1
 -2       307       363       360       384      2020       948      2048      1395      1630      1631
 -1      1555    6    0    1
 -2       194       185       371       367      2119      1172      2118      1141      2055      2133
 -1      1556    6    0    1
 -2       311        67        66       137      2134       431      2135      2077       945       890
 -1      1557    6    0    1
 -2       202       357       219        47      1839      2136      1978      1803       789      1980
 -1      1558    6    0    1
 -2       349       348       182       320       768      1932      1611      1545      1544      1975
 -1      1559    6    0    1
 -2       269       285       270        84      1495      1465       677      1853      2092      1854
 -1      1560    6    0    1
 -2       307       132       334       133      1798      1799      1565      2049       510      1896
 -1      1561    6    0    1
 -2       132       307       363       133      1798      2020       954       510      2049       949
 -1      1562    6    0    1
 -2       110       271       283       284      2137      1464      1698      1852      1463       697
 -1      1563    6    0    1
 -2       183       349       182       320      1609      1611       565      1974      1545      1975
 -1      1564    6    0    1
 -2       232       231       331        42       629      1431      1487      1591      2016      1589
 -1      1565    6    0    1
 -2       123       297       262        94      2086      1407      2138       959      1938      2139
 -1      1566    6    0    1
 -2        67        68       312       237       432      1740      2140      2128      1739      1348
 -1      1567    6    0    1
 -2        85       267        93       268      2141      2142       847      2042       675      2143
 -1      1568    6    0    1
 -2       125       264       298        95      1886      1376      2101       938      2079      2144
 -1      1569    6    0    1
 -2       370       210       367       184      1158      2145      2146      1171      1160      2056
 -1      1570    6    0    1
 -2       105       250       249       255      2147       653      2148      2149      1287      1288
 -1      1571    6    0    1
 -2       142       322       141        76      1958      1959       520       897      2104       898
 -1      1572    6    0    1
 -2       101       106       254       251       858      1912      1860      1962      1961      1284
 -1      1573    6    0    1
 -2        11       343       177        12      1649      1606      1070       483      1607       559
 -1      1574    6    0    1
 -2       387       385        24        63      1424      1384      1418      2111      1713      1902
 -1      1575    6    0    1
 -2        96        95        88       264       466       839       834      1620      2079      1619
 -1      1576    6    0    1
 -2        11       343       315       177      1649      1540      2150      1070      1606      2151
 -1      1577    6    0    1
 -2       327       354       355       146      1527       775      1528      1751      1752      1755
 -1      1578    6    0    1
 -2       185       367       194       186      2055      1141      2119      1117      1139      1130
 -1      1579    6    0    1
 -2       223       229       230        44      1215       627      1214      2103      2088      2089
 -1      1580    6    0    1
 -2       311        66        67       236      2135       431      2134      1385      2054      2152
 -1      1581    6    0    1
 -2       334       307       133       335      1565      2049      1896       753      1566      1917
 -1      1582    6    0    1
 -2        32        10       176       109      1802       558      2153      1817       484       996
 -1      1583    6    0    1
 -2        22       277       328        81       687      1368      1369      2018      2061      2019
 -1      1584    6    0    1
 -2       303       331       304       129      1558      1559       719      1626      2154      1628
 -1      1585    6    0    1
 -2       149        11       315       177       528      2150      1692      1074      1070      2151
 -1      1586    6    0    1
 -2        21       149       247       103      1898      1993       650      1897       918      1994
 -1      1587    6    0    1
 -2       171       143       351       323      1064      2155      2029      2115      2126      1526
 -1      1588    6    0    1
 -2       232       331       330       158      1487       749      1428      1590      1588      2156
 -1      1589    6    0    1
 -2        58        59       305       223       423      1783      1597      1598      1883      1339
 -1      1590    6    0    1
 -2        23       322       272        76      1398      1361       681      1998      2104      2105
 -1      1591    6    0    1
 -2        23        31         1        70       640      1664      1662      1997      1814       816
 -1      1592    6    0    1
 -2       172       324       351       143      2052      1532      2158      1066      2157      2155
 -1      1593    6    0    1
 -2       203        62        24       218      1844      2159      2160      1668      1876       612
 -1      1594    6    0    1
 -2        32        10       356       176      1802      2123      1461      2153       558      1965
 -1      1595    6    0    1
 -2         2        82        22        32       832      1924      1734      2161      2064       680
 -1      1596    6    0    1
 -2       172       351       324       352      2158      1532      2052      2053       772      1533
 -1      1597    6    0    1
 -2        46       227        47       202      1644      1723       410      1645      1220      1803
 -1      1598    6    0    1
 -2        69        68       313       139       433      1738      2162       893       936      2163
 -1      1599    6    0    1
 -2       164       310       338       337      1914      1572      2164      1915      1571       756
 -1      1600    6    0    1
 -2       113       268        85       286      2063      2042      1052      2165      1518      2113
 -1      1601    6    0    1
 -2        70       171       282       350      1021      2030      1816      1815      1880      1455
 -1      1602    6    0    1
 -2       232       329        29        41      1429      1426       630      1999      1943      1765
 -1      1603    6    0    1
 -2        26       252       321       155       656      1358      1391      1721      1823      1995
 -1      1604    6    0    1
 -2        85       267        86        93      2141      2034       455       847      2142       845
 -1      1605    6    0    1
 -2       270       111        84       285      2166      1039      1854      1465      2167      2092
 -1      1606    6    0    1
 -2        35       343       315        11      1537      1540       731      1587      1649      2150
 -1      1607    6    0    1
 -2       270       111        83        84      2166      1000      1650      1854      1039       453
 -1      1608    6    0    1
 -2        75         2        22        32       817      1734      2168      1787      2161       680
 -1      1609    6    0    1
 -2       271       284       110        83      1463      1852      2137      1652      1651       999
 -1      1610    6    0    1
 -2       166       165       311       339       546      2076      1654      1655      2117      1574
 -1      1611    6    0    1
 -2       142       322       323       350      1958       740      2027      1881      1524      1525
 -1      1612    6    0    1
 -2       113       268       286       287      2063      1518      2165      2001      1517       700
 -1      1613    6    0    1
 -2       102       252        26       108      1996       656      1608       850      1824      1720
 -1      1614    6    0    1
 -2        69        68       238       313       433      1867      1736      2162      1738      1350
 -1      1615    6    0    1
 -2        39       301       321        15       716      1335       738      2069      1822      2070
 -1      1616    6    0    1
 -2       160       230       333        44      2028      1432      1790       979      2089      2087
 -1      1617    6    0    1
 -2       341       340       240       167       759      1439      1438      1833      2169      1835
 -1      1618    6    0    1
 -2       256       346       345       179      1513       765      1448      2170      1934      2171
 -1      1619    6    0    1
 -2       110       283       271        82      1698      1464      2137       998      1696      1925
 -1      1620    6    0    1
 -2       276        74        80       277      1909       821      1955       686      1910      2172
 -1      1621    6    0    1
 -2        75         2        81        22       817       449       818      2168      1734      2018
 -1      1622    6    0    1
 -2       251       319       106       250      1355      2011      1961       654      1416      1913
 -1      1623    6    0    1
 -2       249       151       105       248      2173       961      2148       652      2174      2175
 -1      1624    6    0    1
 -2        60        46       228        45       805      1888      2176       796       409      1983
 -1      1625    6    0    1
 -2       270       111       284        83      2166      2102      1466      1650      1000      1651
 -1      1626    6    0    1
 -2       346       179       317       345      1934      1935      1549       765      2171      1546
 -1      1627    6    0    1
 -2       249       151       317       318      2173      1936      1404      1414      1877       734
 -1      1628    6    0    1
 -2       297       298       124       289       712      1969      1937      1329      1322      2177
 -1      1629    6    0    1
 -2       387        62        24        25      1772      2159      1418      1419      1685       615
 -1      1630    6    0    1
 -2        60       228        46       377      2176      1888       805      1899      1225      1643
 -1      1631    6    0    1
 -2        62       218        63        24      1876      2178       427      2159       612      1902
 -1      1632    6    0    1
 -2       249       151       248       317      2173      2174       652      1404      1936      1390
 -1      1633    6    0    1
 -2       222        57       231       221      1863      1864      1212       618      2015      1211
 -1      1634    6    0    1
 -2       227        27        47       202       624      1977      1723      1220       593      1803
 -1      1635    6    0    1
 -2       163       164       309       135       544      1916      2179      1099      1098      2122
 -1      1636    6    0    1
 -2       345       150       317       316      1973      1946      1546      1543      1948       733
 -1      1637    6    0    1
 -2       388       245        49       389      1473      2039      2038      1477      1476      2180
 -1      1638    6    0    1
 -2       242       339       165        51      1470      2117      1702      1703      1919      1019
 -1      1639    6    0    1
 -2       270       111       285       284      2166      2167      1465      1466      2102       698
 -1      1640    6    0    1
 -2       188        27       202       219       577       593      1119      2181      1979      1978
 -1      1641    6    0    1
 -2       188       211        27       219      1231      1229       577      2181      1161      1979
 -1      1642    6    0    1
 -2       222       230       231        43      1213       628      1212      1717      1718      1865
 -1      1643    6    0    1
 -2       365       218       219       202      1666       613      2182      1140      1837      1978
 -1      1644    6    0    1
 -2       163       164       337       309       544      1915      1964      2179      1916      1570
 -1      1645    6    0    1
 -2        16       301        15       127      1727      1822       568      1085      1821       504
 -1      1646    6    0    1
 -2       365       368       219       218      1667      1169      2182      1666      1170       613
 -1      1647    6    0    1
 -2        24       203       204       195      2160      1984       596      1180      1131      1182
 -1      1648    6    0    1
 -2         1        76       322        23       443      2104      2075      1662      1998      1398
 -1      1649    6    0    1
 -2       205       366       369       374      2183      2184      1151      1191      2185      2186
 -1      1650    6    0    1
 -2         1       322        76       141      2075      2104       443       896      1959       898
 -1      1651    6    0    1
 -2       163       164       388       337       544      2187      1976      1964      1915      1511
 -1      1652    6    0    1
 -2       171       351       282       350      2029      1454      2030      1880       771      1455
 -1      1653    6    0    1
 -2       117        88        30         8      1002      1617      1807      1003       458      1621
 -1      1654    6    0    1
 -2       225       228        60       377      1218      2176      1779      1226      1225      1899
 -1      1655    6    0    1
 -2       336       162       364       163      2188      1029      1828      1830       543      1035
 -1      1656    6    0    1
 -2       205       366       368       369      2183      2189      1148      1151      2184      1152
 -1      1657    6    0    1
 -2        15        26       301       321      1716      1336      1822      2070      1391      1335
 -1      1658    6    0    1
 -2       130       222       223       304      1615       619      1596      1788      1380      1338
 -1      1659    6    0    1
 -2       219       383       246        48      1274      1271      1272      2191      2190      2024
 -1      1660    6    0    1
 -2       344       149       177       178      1690      1074      1646      1648      1073       560
 -1      1661    6    0    1
 -2       225       228       224        60      1218      1217       621      1779      2176      1677
 -1      1662    6    0    1
 -2       347       255       100       180      1514      1745      2192      1918      1636      1049
 -1      1663    6    0    1
 -2       241       340       339       166      1486       758      1471      2193      2046      1655
 -1      1664    6    0    1
 -2       324       273       323       143      1364      1363       741      2157      2124      2126
 -1      1665    6    0    1
 -2       203        62       226        25      1844      1683      1219       595      1685       623
 -1      1666    6    0    1
 -2       278       356       355        75      1458       776      1459      1786      1785      1769
 -1      1667    6    0    1
 -2        89        90       119       293       460       923       922      1940      1904      2110
 -1      1668    6    0    1
 -2       205       366       196       368      2183      1134      1188      1148      2189      2194
 -1      1669    6    0    1
 -2        48       246       389       245      2024      1475      2025      2195       648      1476
 -1      1670    6    0    1
 -2       135       164       309       136      1098      1916      2122       513      1101      1811
 -1      1671    6    0    1
 -2       232       329        41       330      1429      1943      1999      1428       748      1944
 -1      1672    6    0    1
 -2        15        26       155         3      1716      1721       535       881      1603       917
 -1      1673    6    0    1
 -2       277        22        75        81       687      2168      2196      2061      2018       818
 -1      1674    6    0    1
 -2        85       267       113        86      2141      2000      1052       455      2034      1053
 -1      1675    6    0    1
 -2       383       244       245        49      1269       647      1270      2106      2037      2039
 -1      1676    6    0    1
 -2       111       285       284       293      2167       698      2102      2109      1321      1320
 -1      1677    6    0    1
 -2       219       383        48       357      1274      2190      2191      2136      2120       790
 -1      1678    6    0    1
 -2       322        38       350        14      1522       770      1524      2033      1700      1701
 -1      1679    6    0    1
 -2       229        44       161       333      2088       980      1982      1435      2087      2197
 -1      1680    6    0    1
 -2        33       148        22       328      1826      1827      1370       746      1988      1369
 -1      1681    6    0    1
 -2       200       192       199       401      1129      1143       590      2199      2198      2200
 -1      1682    6    0    1
 -2       156       302       301       127      2047       717      1728      1087      2201      1821
 -1      1683    6    0    1
 -2       312       167       340       313      2202      2169      1579       728      2203      1575
 -1      1684    6    0    1
 -2       326       327       276       146       744      1366      1365      1750      1751      1956
 -1      1685    6    0    1
 -2        15        26       321       155      1716      1391      2070       535      1721      1995
 -1      1686    6    0    1
 -2       156       301       302       329      1728       717      2047      1726      1554      1555
 -1      1687    6    0    1
 -2       357        48       219        47       790      2191      2136       789       411      1980
 -1      1688    6    0    1
 -2       167       341       340       313      1833       759      2169      2203      1576      1575
 -1      1689    6    0    1
 -2       312       166       167       138      1653       547      2202      2204      1110      1108
 -1      1690    6    0    1
 -2       222        57       221       129      1863      2015       618      1627       940      1847
 -1      1691    6    0    1
 -2       312       167       166       340      2202       547      1653      1579      2169      2046
 -1      1692    6    0    1
 -2       225       377        61       226      1226      1900      1901       622      1224      1773
 -1      1693    6    0    1
 -2       167       168       313       139       548      1929      2203      1105      1104      2163
 -1      1694    6    0    1
 -2       147       327       277       328      2096      1367      2060      2062       745      1368
 -1      1695    6    0    1
 -2       203        62        25        24      1844      1685       595      2160      2159       615
 -1      1696    6    0    1
 -2       229       223        59        44      1215      1883      1793      2088      2103       787
 -1      1697    6    0    1
 -2        63       218       357       233      2178      1838       799      1776      1257      2116
 -1      1698    6    0    1
 -2       162        46       392       391       982      1887      1693      1694      1722      1497
 -1      1699    6    0    1
 -2        36       343        12        30       762      1607      1612      1445      1444      1605
 -1      1700    6    0    1
 -2       179       256        98       345      2170      1640      1009      2171      1448      1642
 -1      1701    6    0    1
 -2        62       387        24        63      1772      1418      2159       427      2111      1902
 -1      1702    6    0    1
 -2       262        86       267        93      2205      2034      1300      2206       845      2142
 -1      1703    6    0    1
 -2       167       313       168       341      2203      1929       548      1833      1576      1928
 -1      1704    6    0    1
 -2       218       203       204        24      1668      1984      1147       612      2160       596
 -1      1705    6    0    1
 -2       218       357       219       202      1838      2136       613      1837      1839      1978
 -1      1706    6    0    1
 -2        99       249       105       248      2207      2148       857      2208       652      2175
 -1      1707    6    0    1
 -2       343       257        97        30      1447      2017      1708      1444       662      1681
 -1      1708    6    0    1
 -2       368       365       219       211      1667      2182      1169      1162      2209      1161
 -1      1709    6    0    1
 -2       341       239       342       168      1441      1440       760      1928      2210      1927
 -1      1710    6    0    1
 -2       342       239        54       168      1440      1868      1862      1927      2210       987
 -1      1711    6    0    1
 -2       136       311       235        66      2211      1347      2212       891      2135      1953
 -1      1712    6    0    1
 -2       325       274       324       144      1417      1400       742      1657      2213      1656
 -1      1713    6    0    1
 -2       152       250       319       318      2214      1416      1659      1661      1415       735
 -1      1714    6    0    1
 -2       101       251       253       107      1962      1280      2071       855      1674      1733
 -1      1715    6    0    1
 -2       314        69       238       313      1735      1736      1351       729      2162      1350
 -1      1716    6    0    1
 -2       147       148       176       328       526      1063      1061      2062      1988      1986
 -1      1717    6    0    1
 -2       385       384       361       387      1413      2107      1712      1424      1425      2108
 -1      1718    6    0    1
 -2       224       228        45        60      1217      1983      1676      1677      2176       796
 -1      1719    6    0    1
 -2       229        59       223       224      1793      1883      1215      1216      1678       620
 -1      1720    6    0    1
 -2       184       210       367       187      1160      2145      2056      1115      2010      1138
 -1      1721    6    0    1
 -2       223        58        59        44      1598       423      1883      2103       786       787
 -1      1722    6    0    1
 -2       111       285       293       294      2167      1321      2109      2215      1327       708
 -1      1723    6    0    1
 -2       263       266        94        87      1298      2216      1819      1820      2130       841
 -1      1724    6    0    1
 -2        52       166       340       241      1032      2046      2217      2022      2193      1486
 -1      1725    6    0    1
 -2       136       235       311       310      2212      1347      2211      1810      1346       726
 -1      1726    6    0    1
 -2        89        82        22         2       835      1924      1730       459       832      1734
 -1      1727    6    0    1
 -2        51       166       241       339      1024      2193      1920      1919      1655      1471
 -1      1728    6    0    1
 -2       224       228       229        45      1217       626      1216      1676      1983      1792
 -1      1729    6    0    1
 -2       162        46       391        47       982      1722      1694      1023       410      1724
 -1      1730    6    0    1
 -2       146       145       354       174       524      2218      1752      1060      1065      1753
 -1      1731    6    0    1
 -2       322       142       170       350      1958      1058      1960      1524      1881      1882
 -1      1732    6    0    1
 -2       310        65       136       235      1808       888      1810      1346      1957      2212
 -1      1733    6    0    1
 -2       205       366       374       196      2183      2185      1191      1188      1134      1190
 -1      1734    6    0    1
 -2        40        16       329       301      1813      1725       747      1552      1727      1554
 -1      1735    6    0    1
 -2        31       239        54       342       641      1868      1665      1443      1440      1862
 -1      1736    6    0    1
 -2        51       166        52       241      1024      1032       415      1920      2193      2022
 -1      1737    6    0    1
 -2        97        98       344       178       469      1641      1647      1007      1008      1648
 -1      1738    6    0    1
 -2       147       148       328        81       526      1988      2062       904       903      2019
 -1      1739    6    0    1
 -2       218       383       357       233      1273      2120      1838      1257      1258      2116
 -1      1740    6    0    1
 -2       188       365       219       202      1121      2182      2181      1119      1140      1978
 -1      1741    6    0    1
 -2       146       354       145       326      1752      2218       524      1750      1531      1709
 -1      1742    6    0    1
 -2        19       186       185       194       574      1117      1116       584      1130      2119
 -1      1743    6    0    1
 -2        69         1       314        23       434      2114      1735      1737      1662      1397
 -1      1744    6    0    1
 -2        74        75       355       175       441      1769      2009       993       994      1770
 -1      1745    6    0    1
 -2       279       278       355        74       689      1459      1456      2008      1908      2009
 -1      1746    6    0    1
 -2       400       373       397       371      2219      2220      2222      2223      2221      2224
 -1      1747    6    0    1
 -2        65       135       309       136       889      2122      1809       888       513      1811
 -1      1748    6    0    1
 -2        60       363       225        61       950      1778      1779       425       947      1901
 -1      1749    6    0    1
 -2       259       260       269        91       666      1297      1296      1963      2065      1855
 -1      1750    6    0    1
 -2        94        93       262       123       464      2206      2139       959       966      2138
 -1      1751    6    0    1
 -2       237       313       238        68      1349      1350       638      1739      1738      1867
 -1      1752    6    0    1
 -2        40        16       321       349      1813      1921      1538       769      1806      1539
 -1      1753    6    0    1
 -2       228        46       161        45      1888       981      1981      1983       409      1031
 -1      1754    6    0    1
 -2       164       310       309       136      1914       725      1916      1101      1810      1811
 -1      1755    6    0    1
 -2       203        24        25       195      2160       615       595      1131      1180       585
 -1      1756    6    0    1
 -2       228       161        46       392      1981       981      1888      1483      1945      1887
 -1      1757    6    0    1
 -2       263       265        87        95      1293      2132      1820      1818      2078       838
 -1      1758    6    0    1
 -2        69       314         1       140      1735      2114       434       892      2225       895
 -1      1759    6    0    1
 -2       338       136       311       310      2226      2211      1573      1572      1810       726
 -1      1760    6    0    1
 -2       320       183       321       155      1974      1922       737      1842      1072      1995
 -1      1761    6    0    1
 -2        97        98       257       344       469      1682      2017      1647      1641      1446
 -1      1762    6    0    1
 -2        67        68       138       312       432       939       944      2140      1740      2204
 -1      1763    6    0    1
 -2        74       355        75       278      2009      1769       441      1908      1459      1786
 -1      1764    6    0    1
 -2       298       263       124        95      1387      1846      1969      2144      1818       946
 -1      1765    6    0    1
 -2       129       130       222        57       507      1615      1627       940       926      1863
 -1      1766    6    0    1
 -2        22       271        32        82      1289       679       680      1924      1925      2064
 -1      1767    6    0    1
 -2       338       136       165       311      2226      1100      1967      1573      2211      2076
 -1      1768    6    0    1
 -2       129       222       130       304      1627      1615       507      1628      1380      1788
 -1      1769    6    0    1
 -2       165       339       338       311      2117       757      1967      2076      1574      1573
 -1      1770    6    0    1
 -2       339       338       242       165       757      1472      1470      2117      1967      1702
 -1      1771    6    0    1
 -2       246        48       383       245      2024      2190      1271       648      2195      1270
 -1      1772    6    0    1
 -2       254       181       347       100      1859      1926      1503      1746      1042      2192
 -1      1773    6    0    1
 -2       222       303       129       221      1393      1626      1627       618      1399      1847
 -1      1774    6    0    1
 -2       119       118        89       293       495       921       922      2110      1941      1940
 -1      1775    6    0    1
 -2       291       265        30        88      1467       672      1469      1911      1848      1617
 -1      1776    6    0    1
 -2       331       129       330       158      2154      2227       749      1588      1112      2156
 -1      1777    6    0    1
 -2        94        93        86       262       464       845       843      2139      2206      2205
 -1      1778    6    0    1
 -2       320       321       183       349       737      1922      1974      1545      1539      1609
 -1      1779    6    0    1
 -2       331       330       129       303       749      2227      2154      1558      1557      1626
 -1      1780    6    0    1
 -2       217        19        20       185      1227       573       611      1168      1116       572
 -1      1781    6    0    1
 -2       386       135        64       362      2228       935      2229      2230       952       934
 -1      1782    6    0    1
 -2       333       334       132       161       752      1799      1622      2197      1894      1092
 -1      1783    6    0    1
 -2        85       267       268       113      2141       675      2042      1052      2000      2063
 -1      1784    6    0    1
 -2       333       132       334       306      1622      1799       752      1563      1623      1564
 -1      1785    6    0    1
 -2       295       122       121       287      2231       498      2050      1332      2035      2036
 -1      1786    6    0    1
 -2       119       118       293       110       495      1941      2110       866       864      1851
 -1      1787    6    0    1
 -2       281       351       172       352      1491      2158      2232      1492       772      2053
 -1      1788    6    0    1
 -2       327       276        80       277      1366      1955      1954      1367       686      2172
 -1      1789    6    0    1
 -2       289       290       124       115       703      2233      2177      2112      1874       873
 -1      1790    6    0    1
 -2       281       351        71       172      1491      2031      2067      2232      2158      1037
 -1      1791    6    0    1
 -2       289       124       290       298      2177      2233       703      1322      1969      1323
 -1      1792    6    0    1
 -2       338       136       164       165      2226      1101      2164      1967      1100       545
 -1      1793    6    0    1
 -2       301        16       156       127      1727       536      1728      1821      1085      1087
 -1      1794    6    0    1
 -2        89        90       293       258       460      1904      1940      1871      1905      1373
 -1      1795    6    0    1
 -2         5        31         1        54      1841      1664       403       418      1665       781
 -1      1796    6    0    1
 -2       255       254       347       100       659      1503      1514      1745      1746      2192
 -1      1797    6    0    1
 -2       345       317       150       179      1546      1946      1973      2171      1935      1075
 -1      1798    6    0    1
 -2       324       351       143       323      1532      2155      2157       741      1526      2126
 -1      1799    6    0    1
 -2       386       135       234        64      2228      2121      1405      2229       935      2073
 -1      1800    6    0    1
 -2       249        99       105       255      2207       857      2148      1288      1638      2149
 -1      1801    6    0    1
 -2       115        87       289       265      1043      2131      2112      1875      2132      1493
 -1      1802    6    0    1
 -2        67        52       241       236       811      2022      2234      2152      2021      1266
 -1      1803    6    0    1
 -2       152       319       250       106      1659      1416      2214       970      2011      1913
 -1      1804    6    0    1
 -2       145       353       173       325      1710      2235      1069      1711      1536      2236
 -1      1805    6    0    1
 -2       338       136       310       164      2226      1810      1572      2164      1101      1914
 -1      1806    6    0    1
 -2       326        79       325       145      2237      2238       743      1709       957      1711
 -1      1807    6    0    1
 -2       326       325        79       275       743      2238      2237      1386      1408      2239
 -1      1808    6    0    1
 -2       154       319       107       320      1706      1675       913      1671       736      1670
 -1      1809    6    0    1
 -2       336       337       309       163       755      1570      1569      1830      1964      2179
 -1      1810    6    0    1
 -2        35        11       315        21      1587      2150       731      1353      1872      1354
 -1      1811    6    0    1
 -2       263       265       266        87      1293       673      1298      1820      2132      2130
 -1      1812    6    0    1
 -2       365       188       219       211      1121      2181      2182      2209      1231      1161
 -1      1813    6    0    1
 -2       176       147       355       175      1061      2097      1768       557      1062      1770
 -1      1814    6    0    1
 -2       286       287       295       121       700      1332      1331      2004      2036      2050
 -1      1815    6    0    1
 -2       142        77       323       272       900      2125      2027      2026      2014      1362
 -1      1816    6    0    1
 -2       386       135       309       234      2228      2122      1420      1405      2121      1344
 -1      1817    6    0    1
 -2       386       135       362       309      2228       952      2230      1420      2122      2240
 -1      1818    6    0    1
 -2       176       355       147       328      1768      2097      1061      1986      1529      2062
 -1      1819    6    0    1
 -2       256       346       179        99      1513      1934      2170      2241      1639      1028
 -1      1820    6    0    1
 -2       217        19       185       194      1227      1116      1168      1228       584      2119
 -1      1821    6    0    1
 -2       397       367       371       370      2242      2133      2224      2243      2146      1176
 -1      1822    6    0    1
 -2       140         1        13       314       895       894       518      2225      2114      2244
 -1      1823    6    0    1
 -2       397       367       193       371      2242      1144      2245      2224      2133      2246
 -1      1824    6    0    1
 -2         2        82        32         6       832      2064      2161       435       451      2247
 -1      1825    6    0    1
 -2        32        75         2         6      1787       817      2161      2247       442       435
 -1      1826    6    0    1
 -2       397       367       200       193      2242      1145      2248      2245      1144      1128
 -1      1827    6    0    1
 -2       397       367       370       200      2242      2146      2243      2248      1145      2249
 -1      1828    6    0    1
 -2       277        75        74        81      2196       441      1910      2061       818       819
 -1      1829    6    0    1
 -2       277        74        75       278      1910       441      2196      1308      1908      1786
 -1      1830    6    0    1
 -2         6        75       176        32       442       995      1026      2247      1787      2153
 -1      1831    6    0    1
 -2       176       109         6        32       996      1038      1026      2153      1817      2247
 -1      1832    6    0    1
 -2       109        82         6        32       997       451      1038      1817      2064      2247
 -1      1833    6    0    1
 -2         9       118        10       292       494       861       482      1771      1731      1805
 -1      1834    6    0    1
 -2       148        33         9       356      1826      1825       527      1987      1523      2250
 -1      1835    6    0    1
 -2        33       292         9        34       706      1771      1825       694      1316      2251
 -1      1836    6    0    1
 -2       148         9        10       356       527       482      1055      1987      2250      2123
 -1      1837    6    0    1
 -2        10       118       109       292       861       863       484      1805      1731      1812
 -1      1838    6    0    1
 -2       176       148        10       356      1063      1055       558      1965      1987      2123
 -1      1839    6    0    1
 -2       152       249       105       250      2252      2148       969      2214       653      2147
 -1      1840    6    0    1
 -2       110       292       118       293      2253      1731       864      1851       707      1941
 -1      1841    6    0    1
 -2       140        13        14       314       518       567      1086      2225      2244      2254
 -1      1842    6    0    1
 -2       110       292       109       118      2253      1812       485       864      1731       863
 -1      1843    6    0    1
 -2        38        31        14       342      1442      1699      1700       761      1443      1850
 -1      1844    6    0    1
 -2       322        38        14        37      1522      1700      2033       739       778      2059
 -1      1845    6    0    1
 -2       201       210        17       187      1179       603      1178      1136      2010      1114
 -1      1846    6    0    1
 -2       187        18        17       201       576       569      1114      1136       592      1178
 -1      1847    6    0    1
 -2        21       103       247        97      1897      1994       650      1796       851      2255
 -1      1848    6    0    1
 -2        21        30        97       247       663      1681      1796       650      1277      2255
 -1      1849    6    0    1
 -2        30       264        21        96      1295       671       663      1618      1620      1797
 -1      1850    6    0    1
 -2       110       292       283       109      2253      1318      1698       485      1812      1697
 -1      1851    6    0    1
 -2        22       277        75        32       687      2196      2168       680      1309      1787
 -1      1852    6    0    1
 -2        76        23        70       272      1998      1997       820      2105       681      2256
 -1      1853    6    0    1
 -2       239        54        23        31      1868      1663      1265       641      1665       640
 -1      1854    6    0    1
 -2        23       272        31        70       681      1304       640      1997      2256      1814
 -1      1855    6    0    1
 -2        63       233        24       218      1776       633      1902      2178      1257       612
 -1      1856    6    0    1
 -2       220        29        26        55      1208       631       616      1600      1584      1583
 -1      1857    6    0    1
 -2       211        28        27       219       604       632      1229      1161       614      1979
 -1      1858    6    0    1
 -2        27       390       393       364      1521      1520      1508      2257      1843      2258
 -1      1859    6    0    1
 -2       110       292       293       283      2253       707      1851      1698      1318      1319
 -1      1860    6    0    1
 -2       391        27       393        47      1482      1508      1507      1724      1977      2259
 -1      1861    6    0    1
 -2        47       219        27        28      1980      1979      1977      2260       614       632
 -1      1862    6    0    1
 -2       219       246        28        48      1272       649       614      2191      2024      2261
 -1      1863    6    0    1
 -2       246       390        28        48      1479      1478       649      2024      2023      2261
 -1      1864    6    0    1
 -2       102       253        29       252      1629       657      1614      1996      1281      1282
 -1      1865    6    0    1
 -2        41       220        29       232      1764      1208      1765      1999      1209       630
 -1      1866    6    0    1
 -2       257        97        30       247      2017      1681       662      1278      2255      1277
 -1      1867    6    0    1
 -2       282        70        31       272      1816      1814       693      1305      2256      1304
 -1      1868    6    0    1
 -2       278       277        32        75      1308      1309       688      1786      2196      1787
 -1      1869    6    0    1
 -2       356        75        32       176      1785      1787      1461      1965       995      2153
 -1      1870    6    0    1
 -2       295       122       261       121      2231      1949      1421      2050       498      2262
 -1      1871    6    0    1
 -2       356        34        33         9       777       694      1523      2250      2251      1825
 -1      1872    6    0    1
 -2       295       122       296       261      2231      1951       710      1421      1949      1422
 -1      1873    6    0    1
 -2       314        38        37        14      1553       778       730      2254      1700      2059
 -1      1874    6    0    1
 -2       314       342        38        14      1578       761      1553      2254      1850      1700
 -1      1875    6    0    1
 -2       157       158        41       330       538      1033       976      1762      2156      1944
 -1      1876    6    0    1
 -2        56        55        41       220       420       782       813      1774      1600      1764
 -1      1877    6    0    1
 -2       330        41       232       158      1944      1999      1428      2156      1033      1590
 -1      1878    6    0    1
 -2        41        42        56       232       405       804       813      1999      1591      1592
 -1      1879    6    0    1
 -2       158        42        41       232      1034       405      1033      1590      1591      1999
 -1      1880    6    0    1
 -2        43        57        42       231       784       783       406      1865      1864      2016
 -1      1881    6    0    1
 -2       159        43        42       231       977       406      1030      1891      1865      2016
 -1      1882    6    0    1
 -2       221        57        42        56      2015       783      1594      1593       421       804
 -1      1883    6    0    1
 -2       158       159        42       331       539      1030      1034      1588      1971      1589
 -1      1884    6    0    1
 -2       231       331        42       159      1431      1589      2016      1891      1971      1030
 -1      1885    6    0    1
 -2       222        58        43        57      1616       785      1717      1863       422       784
 -1      1886    6    0    1
 -2       159       160        43       332       540       978       977      1890      1791      1892
 -1      1887    6    0    1
 -2        58       230        43        44      1719      1718       785       786      2089       407
 -1      1888    6    0    1
 -2       332        43       230       160      1892      1718      1433      1791       978      2028
 -1      1889    6    0    1
 -2       160        44        43       230       979       407       978      2028      2089      1718
 -1      1890    6    0    1
 -2       229       161        44        45      1982       980      2088      1792      1031       408
 -1      1891    6    0    1
 -2        59       229        44        45      1793      2088       787       788      1792       408
 -1      1892    6    0    1
 -2       333       160        44       161      1790       979      2087      2197       541       980
 -1      1893    6    0    1
 -2       152       249       151       105      2252      2173       531       969      2148       961
 -1      1894    6    0    1
 -2       332       130       331       159      2083      2263       750      1890      1109      1971
 -1      1895    6    0    1
 -2       332       331       130       304       750      2263      2083      1560      1559      1788
 -1      1896    6    0    1
 -2       358        60        46       377       814       805       806      1991      1899      1643
 -1      1897    6    0    1
 -2       162       392        46       161      1693      1887       982       542      1945       981
 -1      1898    6    0    1
 -2        48        47       364        28       411      1016      1015      2261      2260      2264
 -1      1899    6    0    1
 -2        47       391       162       393      1724      1694      1023      2259      1507      2265
 -1      1900    6    0    1
 -2        48       219        47        28      2191      1980       411      2261       614      2260
 -1      1901    6    0    1
 -2       162       364        47       393      1029      1016      1023      2265      2258      2259
 -1      1902    6    0    1
 -2       364       163        48       389      1035      1017      1015      1829      1831      2025
 -1      1903    6    0    1
 -2       364       390        48        28      1843      2023      1015      2264      1478      2261
 -1      1904    6    0    1
 -2       383       245        48        49      1270      2195      2190      2106      2039       412
 -1      1905    6    0    1
 -2       163        49        48       389       983       412      1017      1831      2180      2025
 -1      1906    6    0    1
 -2        48        49       357       383       412       803       790      2190      2106      2120
 -1      1907    6    0    1
 -2       245       389        48        49      1476      2025      2195      2039      2180       412
 -1      1908    6    0    1
 -2       389        49       388       163      2180      2038      1477      1831       983      1976
 -1      1909    6    0    1
 -2       152       249       318       151      2252      1414      1661       531      2173      1877
 -1      1910    6    0    1
 -2        50        65        49       244       792       791       413      2266      2095      2037
 -1      1911    6    0    1
 -2       152       249       250       318      2252       653      2214      1661      1414      1415
 -1      1912    6    0    1
 -2       163       164        49       388       544       984       983      1976      2187      2038
 -1      1913    6    0    1
 -2        65        64        49       234       429       802       791      1939      2073      2094
 -1      1914    6    0    1
 -2        64       357        49       383       801       803       802      2072      2120      2106
 -1      1915    6    0    1
 -2       383       234        49        64      1259      2094      2106      2072      2073       802
 -1      1916    6    0    1
 -2        66        65        50       235       430       792       793      1953      1957      2267
 -1      1917    6    0    1
 -2        97       247        98       103      2255      1688       469       851      1994       852
 -1      1918    6    0    1
 -2       243       165        50        51      1704      1020      2268      1705      1019       414
 -1      1919    6    0    1
 -2        51        66        50       243       794       793       414      1705      1930      2268
 -1      1920    6    0    1
 -2       236        52        51        66      2021       415      1970      2054       808       794
 -1      1921    6    0    1
 -2       340       166        52       167      2046      1032      2217      2169       547      1036
 -1      1922    6    0    1
 -2        67        66        52       236       431       808       811      2152      2054      2021
 -1      1923    6    0    1
 -2       167        53        52       240       985       416      1036      1835      1834      2269
 -1      1924    6    0    1
 -2        67       241        52       240      2234      2022       811      2129       643      2269
 -1      1925    6    0    1
 -2       241       340        52       240      1486      2217      2022       643      1439      2269
 -1      1926    6    0    1
 -2        53        67        52       240       815       811       416      1834      2129      2269
 -1      1927    6    0    1
 -2       240        68        53        67      2127       812      1834      2129       432       815
 -1      1928    6    0    1
 -2       168        54        53       239       987       417       986      2210      1868      2090
 -1      1929    6    0    1
 -2       167       168        53       341       548       986       985      1833      1928      1832
 -1      1930    6    0    1
 -2        54        68        53       239       809       812       417      1868      1869      2090
 -1      1931    6    0    1
 -2       239       341        53       168      1441      1832      2090      2210      1928       986
 -1      1932    6    0    1
 -2       342       168        54       169      1927       987      1862      1849       549       988
 -1      1933    6    0    1
 -2        97        98       247       257       469      1688      2255      2017      1682      1278
 -1      1934    6    0    1
 -2       127       302        55       128      2201      1599       883       505      1601       882
 -1      1935    6    0    1
 -2        56       128        55       220       937       882       420      1774      1602      1600
 -1      1936    6    0    1
 -2       129       128        56       303       506       937       941      1626      1744      1775
 -1      1937    6    0    1
 -2        57       129        56       221       940       941       421      2015      1847      1593
 -1      1938    6    0    1
 -2        58       130        57       222       885       926       422      1616      1615      1863
 -1      1939    6    0    1
 -2        21        11       149         4      1872       528      1898      1795       910       912
 -1      1940    6    0    1
 -2        61       377        60       358      1900      1899       425       798      1991       814
 -1      1941    6    0    1
 -2        62       360        61       384       929       928       426      1684      1631      1632
 -1      1942    6    0    1
 -2       218       357        62        63      1838       800      1876      2178       799       427
 -1      1943    6    0    1
 -2       362       233        64       386      1777      2074       934      2230      1406      2229
 -1      1944    6    0    1
 -2       233       234        64       386       634      2073      2074      1406      1405      2229
 -1      1945    6    0    1
 -2        65       135        64       234       889       935       429      1939      2121      2073
 -1      1946    6    0    1
 -2        21       149        11       315      1898       528      1872      1354      1692      2150
 -1      1947    6    0    1
 -2       234       244        65       243      1276      2095      1939      1260       646      2270
 -1      1948    6    0    1
 -2        66       136        65       235       891       888       430      1953      2212      1957
 -1      1949    6    0    1
 -2       235       234        65       243       635      1939      1957      1261      1260      2270
 -1      1950    6    0    1
 -2       342       140       313       168      2271      2272      1577      1927      1107      1929
 -1      1951    6    0    1
 -2       342       313       140       314      1577      2272      2271      1578       729      2225
 -1      1952    6    0    1
 -2       236       311        66       235      1385      2135      2054       636      1347      1953
 -1      1953    6    0    1
 -2       137       136        66       311       514       891       890      2077      2211      2135
 -1      1954    6    0    1
 -2       243       235        66        50      1261      1953      1930      2268      2267       793
 -1      1955    6    0    1
 -2       235       242        66       236      1268      1931      1953       636      1267      2054
 -1      1956    6    0    1
 -2       138       137        67       311       515       945       944      2273      2077      2134
 -1      1957    6    0    1
 -2        67       236       241       237      2152      1266      2234      2128       637      1275
 -1      1958    6    0    1
 -2       312       138        67       311      2204       944      2140       727      2273      2134
 -1      1959    6    0    1
 -2       240       237        67       241      1262      2128      2129       643      1275      2234
 -1      1960    6    0    1
 -2       238       237        68       240       638      1739      1867      1263      1262      2127
 -1      1961    6    0    1
 -2        68       313       139       312      1738      2163       936      1740       728      2274
 -1      1962    6    0    1
 -2       139       138        68       312       516       939       936      2274      2204      1740
 -1      1963    6    0    1
 -2       240       239        68       238       642      1869      2127      1263      1264      1867
 -1      1964    6    0    1
 -2        69       314       140       313      1735      2225       892      2162       729      2272
 -1      1965    6    0    1
 -2       140       139        69       313       517       893       892      2272      2163      2162
 -1      1966    6    0    1
 -2        71        77        70       282       823       822       437      2032      2013      1816
 -1      1967    6    0    1
 -2        77        76        70       272       444       820       822      2014      2105      2256
 -1      1968    6    0    1
 -2       171        71        70       282      1022       437      1021      2030      2032      1816
 -1      1969    6    0    1
 -2        78        71        72       281       826       438       827      2275      2067      2276
 -1      1970    6    0    1
 -2       351       171        71       172      2029      1022      2031      2158       553      1037
 -1      1971    6    0    1
 -2       164       244        50        49      2277      2266      1018       984      2037       413
 -1      1972    6    0    1
 -2       172        72        71       281      1044       438      1037      2232      2276      2067
 -1      1973    6    0    1
 -2       384       134       307       308      2278      2279      1395      1396      2280       723
 -1      1974    6    0    1
 -2       384       307       134       360      1395      2279      2278      1631      2048       942
 -1      1975    6    0    1
 -2        72       172       173       352      1044       554      1045      2281      2053      2282
 -1      1976    6    0    1
 -2        90        91       270        83       461      1856      1767       837       840      1650
 -1      1977    6    0    1
 -2       295       122       287       296      2231      2035      1332       710      1951      1333
 -1      1978    6    0    1
 -2       173       174        73       354       555      1025      1046      2283      1753      2284
 -1      1979    6    0    1
 -2        73        80        79       276       824       447       825      2285      1955      2286
 -1      1980    6    0    1
 -2        74        80        73       276       821       824       440      1909      1955      2285
 -1      1981    6    0    1
 -2       174        74        73       279       992       440      1025      2007      2008      2287
 -1      1982    6    0    1
 -2        90       270        91       259      1767      1856       461      1903      1292      1963
 -1      1983    6    0    1
 -2        78       273       143        77      2288      2124       965       445      2012       899
 -1      1984    6    0    1
 -2        80       277        74        81      2172      1910       821       448      2061       819
 -1      1985    6    0    1
 -2        74       355       174       175      2009      1754       992       993      1770       556
 -1      1986    6    0    1
 -2        74       279       276        73      2008      1310      1909       440      2287      2285
 -1      1987    6    0    1
 -2        77       142        76       272       900       897       444      2014      2026      2105
 -1      1988    6    0    1
 -2       143       142        77       323       521       900       899      2126      2027      2125
 -1      1989    6    0    1
 -2       282       272        77        70      1305      2014      2013      1816      2256       822
 -1      1990    6    0    1
 -2        78       143       273       324       965      2124      2288      2289      2157      1364
 -1      1991    6    0    1
 -2       243       164       338       337      2290      2164      1436      1437      1915       756
 -1      1992    6    0    1
 -2        79       144        78       274       972       964       446      2291      2213      2292
 -1      1993    6    0    1
 -2       243       164        50       338      2290      1018      2268      1436      2164      2293
 -1      1994    6    0    1
 -2       144       143        78       324       522       965       964      1656      2157      2289
 -1      1995    6    0    1
 -2       146       145        79       326       524       957       956      1750      1709      2237
 -1      1996    6    0    1
 -2       326       275        79       276      1386      2239      2237      1365       685      2286
 -1      1997    6    0    1
 -2       145       144        79       325       523       972       957      1711      1657      2238
 -1      1998    6    0    1
 -2       164       244       388       337      2277      1474      2187      1915      1488      1511
 -1      1999    6    0    1
 -2        80       146        79       276       902       956       447      1955      1956      2286
 -1      2000    6    0    1
 -2        81       147        80       277       904       901       448      2061      2060      2172
 -1      2001    6    0    1
 -2       147       146        80       327       525       902       901      2096      1751      1954
 -1      2002    6    0    1
 -2       327       277        80       147      1367      2172      1954      2096      2060       901
 -1      2003    6    0    1
 -2        83        90        82       271       837       836       452      1652      1766      1925
 -1      2004    6    0    1
 -2       271       110        82        83      2137       998      1925      1652       999       452
 -1      2005    6    0    1
 -2       243       164       244        50      2290      2277       646      2268      1018      2266
 -1      2006    6    0    1
 -2       164       244        49       388      2277      2037       984      2187      1474      2038
 -1      2007    6    0    1
 -2       273        71        78       281      2294       826      2288      1311      2067      2275
 -1      2008    6    0    1
 -2        84        91        83       270       842       840       453      1854      1856      1650
 -1      2009    6    0    1
 -2       338        50       165       164      2293      1020      1967      2164      1018       545
 -1      2010    6    0    1
 -2       338        50       243       165      2293      2268      1436      1967      1020      1704
 -1      2011    6    0    1
 -2       243       164       337       244      2290      1915      1437       646      2277      1488
 -1      2012    6    0    1
 -2       111       112        84       285       487      1040      1039      2167      2044      2092
 -1      2013    6    0    1
 -2       111       112       294       120       487      2005      2215       870       872      2295
 -1      2014    6    0    1
 -2       111       294       112       285      2215      2005       487      2167      1327      2044
 -1      2015    6    0    1
 -2        84        85        92       269       454       846       844      1853      2093      2045
 -1      2016    6    0    1
 -2       299       126        21        96      1889      1966      1388      1884       908      1797
 -1      2017    6    0    1
 -2       299        21       126       300      1388      1966      1889       714      1378      1680
 -1      2018    6    0    1
 -2       121       261        92       122      2262      2041       968       498      1949       971
 -1      2019    6    0    1
 -2        85       112       113       286      1051       488      1052      2113      2006      2165
 -1      2020    6    0    1
 -2        85       268        92       269      2042      2043       846      2093       676      2045
 -1      2021    6    0    1
 -2        85       261       268        93      2040      1302      2042       847      1950      2143
 -1      2022    6    0    1
 -2       286       268        85       269      1518      2042      2113      1494       676      2093
 -1      2023    6    0    1
 -2       273        71        77        78      2294       823      2012      2288       826       445
 -1      2024    6    0    1
 -2        85        92       261        93       846      2041      2040       847       463      1950
 -1      2025    6    0    1
 -2       127       302        26        55      2201      1337      1715       883      1599      1583
 -1      2026    6    0    1
 -2        87        94        86       266       841       843       456      2130      2216      2296
 -1      2027    6    0    1
 -2       127        26       302       301      1715      1337      2201      1821      1336       717
 -1      2028    6    0    1
 -2       399       215       208       192      2297      1155      2298      2299      1246      2300
 -1      2029    6    0    1
 -2       114        87        86       266      1047       456      1050      1634      2130      2296
 -1      2030    6    0    1
 -2       273        71       282        77      2294      2032      1306      2012       823      2013
 -1      2031    6    0    1
 -2        88        95        87       265       839       838       457      1848      2078      2132
 -1      2032    6    0    1
 -2       265       115        87        88      1875      1043      2132      1848      1041       457
 -1      2033    6    0    1
 -2        87       115       289       114      1043      2112      2131      1047       490      2301
 -1      2034    6    0    1
 -2        87       289       266       114      2131      1496      2130      1047      2301      1634
 -1      2035    6    0    1
 -2       399       215       207       208      2297      1156      2302      2298      1155       600
 -1      2036    6    0    1
 -2        90       293       294       119      1904       708      1907       923      2110      2303
 -1      2037    6    0    1
 -2       270       259        90       258      1292      1903      1767      1291       665      1905
 -1      2038    6    0    1
 -2        90       120       119       294       924       496       923      1907      2295      2303
 -1      2039    6    0    1
 -2       258       271        90       270      1290      1766      1905      1291       678      1767
 -1      2040    6    0    1
 -2       273        71       281       282      2294      2067      1311      1306      2032       692
 -1      2041    6    0    1
 -2       121       120        91       294       497       925       962      2003      2295      2304
 -1      2042    6    0    1
 -2        92       121        91       260       968       962       462      2066      2051      2065
 -1      2043    6    0    1
 -2       259       260        91       294       666      2065      1963      1375      1402      2304
 -1      2044    6    0    1
 -2       261       260        92       268       667      2066      2041      1302      1301      2043
 -1      2045    6    0    1
 -2        93       122        92       261       967       971       463      1950      1949      2041
 -1      2046    6    0    1
 -2       262       266        86        94      1299      2296      2205      2139      2216       843
 -1      2047    6    0    1
 -2       262       296        93       261      1423      1952      2206       668      1422      1950
 -1      2048    6    0    1
 -2       123       122        93       296       499       967       966      2305      1951      1952
 -1      2049    6    0    1
 -2       263       297        94       262      1401      1938      1819       669      1407      2139
 -1      2050    6    0    1
 -2       124       123        94       297       500       959       958      1937      2086      1938
 -1      2051    6    0    1
 -2       262        86       266       267      2205      2296      1299      1300      2034       674
 -1      2052    6    0    1
 -2       298       263        95       264      1387      1818      2144      1376       670      2079
 -1      2053    6    0    1
 -2       263       265        95       264      1293      2078      1818       670      1294      2079
 -1      2054    6    0    1
 -2       125       124        95       298       501       946       938      2101      1969      2144
 -1      2055    6    0    1
 -2       197       190       366       394      1146      1122      1135      2307      2306      2308
 -1      2056    6    0    1
 -2       247       257        98       248      1278      1682      1688       651      1279      1689
 -1      2057    6    0    1
 -2        98       179       345       178      1009      2171      1642      1008       561      1972
 -1      2058    6    0    1
 -2       247       104        98       103      1686       853      1688      1994       476       852
 -1      2059    6    0    1
 -2       345       344        98       178       764      1641      1642      1972      1648      1008
 -1      2060    6    0    1
 -2       257       256        98       248       661      1640      1682      1279      1283      1689
 -1      2061    6    0    1
 -2       104       248        98        99      1687      1689       853       854      2208       470
 -1      2062    6    0    1
 -2       179        99        98       256      1028       470      1009      2170      2241      1640
 -1      2063    6    0    1
 -2       248       105        99       104      2175       857      2208      1687       477       854
 -1      2064    6    0    1
 -2       255        99       105       100      1638       857      2149      1745       471       860
 -1      2065    6    0    1
 -2       255       180        99       100      1636      1048      1638      1745      1049       471
 -1      2066    6    0    1
 -2       256       346        99       255      1513      1639      2241       660      1515      1638
 -1      2067    6    0    1
 -2        99       346       179       180      1639      1934      1028      1048      1637       562
 -1      2068    6    0    1
 -2       249       248        99       256       652      2208      2207      1285      1283      2241
 -1      2069    6    0    1
 -2       255       249        99       256      1288      2207      1638       660      1285      2241
 -1      2070    6    0    1
 -2       106       254       100       101      1912      1746       859       858      1860       472
 -1      2071    6    0    1
 -2       255       250       100       105      1287      1747      1745      2149      2147       860
 -1      2072    6    0    1
 -2       250       106       100       105      1913       859      1747      2147       478       860
 -1      2073    6    0    1
 -2       100       347       180       181      2192      1918      1049      1042      1926       563
 -1      2074    6    0    1
 -2       181       101       100       254      1027       472      1042      1859      1860      1746
 -1      2075    6    0    1
 -2       102       107       101       253       856       855       473      1629      1733      2071
 -1      2076    6    0    1
 -2       182       102       101       253      1010       473      1013      1861      1629      2071
 -1      2077    6    0    1
 -2       181       182       101       348       564      1013      1027      1857      1932      1858
 -1      2078    6    0    1
 -2       348       253       101       254      1451      2071      1858      1502       658      1860
 -1      2079    6    0    1
 -2       251       254       101       253      1284      1860      1962      1280       658      2071
 -1      2080    6    0    1
 -2       107       252       102       108      1672      1996       856       480      1824       850
 -1      2081    6    0    1
 -2       150       247       103       104      1992      1994       919       920      1686       476
 -1      2082    6    0    1
 -2       151       150       104       248       530       920       960      2174      1947      1687
 -1      2083    6    0    1
 -2       105       151       104       248       961       960       477      2175      2174      1687
 -1      2084    6    0    1
 -2       106       152       105       250       970       969       478      1913      2214      2147
 -1      2085    6    0    1
 -2       385       134       384       308      2309      2278      1413      1411      2280      1396
 -1      2086    6    0    1
 -2       153       152       106       319       532       970       963      1707      1659      2011
 -1      2087    6    0    1
 -2       154       252       107       108      1673      1672       913       916      1824       480
 -1      2088    6    0    1
 -2       335       162       134       133      1695      1097      2310      1917      1094       511
 -1      2089    6    0    1
 -2       120       294       111       119      2295      2215       870       496      2303       865
 -1      2090    6    0    1
 -2       294       293       111       119       708      2109      2215      2303      2110       865
 -1      2091    6    0    1
 -2       335       162       336       134      1695      2188       754      2310      1097      2311
 -1      2092    6    0    1
 -2       121       294       112       120      2003      2005       874       497      2295       872
 -1      2093    6    0    1
 -2       121       113       112       286       877       488       874      2004      2165      2006
 -1      2094    6    0    1
 -2       122       114       113       287       878       489       879      2035      2002      2001
 -1      2095    6    0    1
 -2       121       287       113       286      2036      2001       877      2004       700      2165
 -1      2096    6    0    1
 -2       385       384       134       361      1413      2278      2309      1712      2107       955
 -1      2097    6    0    1
 -2       123       115       114       289       875       490       876      2084      2112      2301
 -1      2098    6    0    1
 -2       267       266       114        86       674      1634      1635      2034      2296      1050
 -1      2099    6    0    1
 -2       266       288       114       289      1505      1633      1634      1496       702      2301
 -1      2100    6    0    1
 -2       114       288       267       287      1633      1506      1635      2002       701      1519
 -1      2101    6    0    1
 -2       399       215       382       207      2297      1249      2312      2302      1156      2313
 -1      2102    6    0    1
 -2       290       124       115       116      2233       873      1874      1933       871       491
 -1      2103    6    0    1
 -2       123       124       115       289       500       873       875      2084      2177      2112
 -1      2104    6    0    1
 -2       399       215       192       382      2297      1246      2299      2312      1249      1248
 -1      2105    6    0    1
 -2       396       381       375       213      2314      2315      2316      2317      1243      2318
 -1      2106    6    0    1
 -2       260       294       121        91      1402      2003      2051      2065      2304       962
 -1      2107    6    0    1
 -2       294        91        90       120      2304       461      1907      2295       925       924
 -1      2108    6    0    1
 -2       288       289       123       114       702      2084      2085      1633      2301       876
 -1      2109    6    0    1
 -2       289       297       123       124      1329      2086      2084      2177      1937       500
 -1      2110    6    0    1
 -2       297       288       123       296      1330      2085      2086       711      1334      2305
 -1      2111    6    0    1
 -2       127       128       156       302       505      1089      1087      2201      1601      2047
 -1      2112    6    0    1
 -2       157       156       128       302       537      1089      1088      1761      2047      1601
 -1      2113    6    0    1
 -2       128       157       330       129      1088      1762      1763       506      1111      2227
 -1      2114    6    0    1
 -2       128       330       303       129      1763      1557      1744       506      2227      1626
 -1      2115    6    0    1
 -2       158       157       129       330       538      1111      1112      2156      1762      2227
 -1      2116    6    0    1
 -2       208       192       215       401      2300      1246      1155      1757      2198      1758
 -1      2117    6    0    1
 -2       129       158       331       130      1112      1588      2154       507      1113      2263
 -1      2118    6    0    1
 -2       331       304       129       130      1559      1628      2154      2263      1788       507
 -1      2119    6    0    1
 -2       193       400       397       371      2319      2222      2245      2246      2223      2224
 -1      2120    6    0    1
 -2       131       159       130       332      1091      1109       508      1789      1890      2083
 -1      2121    6    0    1
 -2       159       158       130       331       539      1113      1109      1971      1588      2263
 -1      2122    6    0    1
 -2       131       160       333       132      1090      1790      1624       509      1093      1622
 -1      2123    6    0    1
 -2       332       160       131       159      1791      1090      1789      1890       540      1091
 -1      2124    6    0    1
 -2       333       161       132       160      2197      1092      1622      1790       541      1093
 -1      2125    6    0    1
 -2       133       360       134       307       943       942       511      2049      2048      2279
 -1      2126    6    0    1
 -2       396       381       213       395      2314      1243      2317      2321      2320      2322
 -1      2127    6    0    1
 -2       360       361       134       384       932       955       942      1631      2107      2278
 -1      2128    6    0    1
 -2       362       135       134       309       952       512       953      2240      2122      2323
 -1      2129    6    0    1
 -2       361       362       134       385       951       953       955      1712      1714      2309
 -1      2130    6    0    1
 -2       163       162       134       336       543      1097      1096      1830      2188      2311
 -1      2131    6    0    1
 -2       309       163       135       134      2179      1099      2122      2323      1096       512
 -1      2132    6    0    1
 -2       280       173       354       353      2324      2283      1504      1512      2235       774
 -1      2133    6    0    1
 -2       137       165       136       311      1103      1100       514      2077      2076      2211
 -1      2134    6    0    1
 -2       294        90        91       259      1907       461      2304      1375      1903      1963
 -1      2135    6    0    1
 -2       137       166       311       138      1102      1654      2077       515      1110      2273
 -1      2136    6    0    1
 -2       280       173        73       354      2324      1046      2325      1504      2283      2284
 -1      2137    6    0    1
 -2       167       312       138       139      2202      2204      1108      1105      2274       516
 -1      2138    6    0    1
 -2       280       173        72        73      2324      1045      2326      2325      1046       439
 -1      2139    6    0    1
 -2       312       166       138       311      1653      1110      2204       727      1654      2273
 -1      2140    6    0    1
 -2       280       173       353        72      2324      2235      1512      2326      1045      2327
 -1      2141    6    0    1
 -2       313       167       139       312      2203      1105      2163       728      2202      2274
 -1      2142    6    0    1
 -2       168       313       139       140      1929      2163      1104      1107      2272       517
 -1      2143    6    0    1
 -2       169       168       140       342       549      1107      1106      1849      1927      2271
 -1      2144    6    0    1
 -2       171       323       142       143      2115      2027      1057      1064      2126       521
 -1      2145    6    0    1
 -2       172       171       143       351       553      1064      1066      2158      2029      2155
 -1      2146    6    0    1
 -2       144       172       143       324      1067      1066       522      1656      2052      2157
 -1      2147    6    0    1
 -2       173       172       144       352       554      1067      1068      2282      2053      1658
 -1      2148    6    0    1
 -2       144       352       325       173      1658      1534      1657      1068      2282      2236
 -1      2149    6    0    1
 -2       145       173       144       325      1069      1068       523      1711      2236      1657
 -1      2150    6    0    1
 -2       274       324       144        78      1400      1656      2213      2292      2289       964
 -1      2151    6    0    1
 -2       322       314        13         1      1352      2244      2057      2075      2114       894
 -1      2152    6    0    1
 -2       174       173       145       354       555      1069      1065      1753      2283      2218
 -1      2153    6    0    1
 -2       145       353       326       354      1710      1535      1709      2218       774      1531
 -1      2154    6    0    1
 -2       173       353       145       354      2235      1710      1069      2283       774      2218
 -1      2155    6    0    1
 -2       276       326       146        79      1365      1750      1956      2286      2237       956
 -1      2156    6    0    1
 -2       175       174       146       355       556      1060      1059      1770      1754      1755
 -1      2157    6    0    1
 -2       355       327       146       147      1528      1751      1755      2097      2096       525
 -1      2158    6    0    1
 -2       147       175       146       355      1062      1059       525      2097      1770      1755
 -1      2159    6    0    1
 -2       290       125       124       116      2328       501      2233      1933       868       871
 -1      2160    6    0    1
 -2       151       179       150       317      1079      1075       530      1936      1935      1946
 -1      2161    6    0    1
 -2       345       179       150       178      2171      1075      1973      1972       561      1076
 -1      2162    6    0    1
 -2       317       248       150       151      1390      1947      1946      1936      2174       530
 -1      2163    6    0    1
 -2       180       179       151       346       562      1079      1082      1637      1934      1879
 -1      2164    6    0    1
 -2       180       318       151       152      1878      1877      1082      1084      1661       531
 -1      2165    6    0    1
 -2       181       180       152       347       563      1084      1083      1926      1918      1660
 -1      2166    6    0    1
 -2       290       125       298       124      2328      2101      1323      2233       501      1969
 -1      2167    6    0    1
 -2       182       181       153       348       564      1081      1080      1932      1857      2081
 -1      2168    6    0    1
 -2       333       161       229       334      2197      1982      1435       752      1894      1434
 -1      2169    6    0    1
 -2       290       125       299       298      2328      1885      1324      1323      2101       713
 -1      2170    6    0    1
 -2       391       335       162       393      1510      1695      1694      1507      1501      2265
 -1      2171    6    0    1
 -2       336       364       162       393      1828      1029      2188      1500      2258      2265
 -1      2172    6    0    1
 -2       309       336       163       134      1569      1830      2179      2323      2311      1096
 -1      2173    6    0    1
 -2       315       177       344       149      2151      1646      1541      1692      1074      1690
 -1      2174    6    0    1
 -2       322        13       314        37      2057      2244      1352       739      2058       730
 -1      2175    6    0    1
 -2       340       240       167        52      1439      1835      2169      2217      2269      1036
 -1      2176    6    0    1
 -2       315       344       177       343      1541      1646      2151      1540       763      1606
 -1      2177    6    0    1
 -2       296       123       262        93      2305      2138      1423      1952       966      2206
 -1      2178    6    0    1
 -2       281       352       172        72      1492      2053      2232      2276      2281      1044
 -1      2179    6    0    1
 -2       325       353       173       352      1536      2235      2236      1534       773      2282
 -1      2180    6    0    1
 -2       296       262       123       297      1423      2138      2305       711      1407      2086
 -1      2181    6    0    1
 -2       354       279       174        73      1457      2007      1753      2284      2287      1025
 -1      2182    6    0    1
 -2       370       184       367       371      1171      2056      2146      1176      1174      2133
 -1      2183    6    0    1
 -2       371       185       184       367      1172       571      1174      2133      2055      2056
 -1      2184    6    0    1
 -2        28       364        27        47      2264      2257       632      2260      1016      1977
 -1      2185    6    0    1
 -2        28        27       364       390       632      2257      2264      1478      1521      1843
 -1      2186    6    0    1
 -2       367       201       187       210      1142      1136      1138      2145      1179      2010
 -1      2187    6    0    1
 -2       211       188       378       365      1231      1234      1233      2209      1121      2329
 -1      2188    6    0    1
 -2       365       189       188       378      1120       578      1121      2329      1247      1234
 -1      2189    6    0    1
 -2       211       378       189       365      1233      1247      1238      2209      2329      1120
 -1      2190    6    0    1
 -2       189       365       366       368      1120      1124      1123      2330      1667      2189
 -1      2191    6    0    1
 -2       380       212       189       369      1239      1237      1240      2331      1164      2332
 -1      2192    6    0    1
 -2       190       189       366       369       579      1123      1122      2333      2332      2184
 -1      2193    6    0    1
 -2       212       211       189       368       605      1238      1237      1163      1162      2330
 -1      2194    6    0    1
 -2       190       380       189       369      1254      1240       579      2333      2331      2332
 -1      2195    6    0    1
 -2       325        79       274       144      2238      2291      1417      1657       972      2213
 -1      2196    6    0    1
 -2       325       274        79       275      1417      2291      2238      1408       684      2239
 -1      2197    6    0    1
 -2       369       206       366       394      1150      2334      2184      2336      2335      2308
 -1      2198    6    0    1
 -2       213       212       190       369       606      1242      1241      1165      1164      2333
 -1      2199    6    0    1
 -2       366       374       196       206      2185      1190      1134      2334      1204      1193
 -1      2200    6    0    1
 -2       212       380       190       369      1239      1254      1242      1164      2331      2333
 -1      2201    6    0    1
 -2       296       114       287       288      2337      2002      1333      1334      1633       701
 -1      2202    6    0    1
 -2       191       192       382       198       581      1248      1253      1125      1127      2338
 -1      2203    6    0    1
 -2       382       214       191       207      1252      1250      1253      2313      1153      2339
 -1      2204    6    0    1
 -2       209       400       216       371      2340      2098      1173      1177      2223      1166
 -1      2205    6    0    1
 -2       296       114       122       287      2337       878      1951      1333      2002      2035
 -1      2206    6    0    1
 -2       296       114       123       122      2337       876      2305      1951       878       499
 -1      2207    6    0    1
 -2       369       190       394       366      2333      2306      2336      2184      1122      2308
 -1      2208    6    0    1
 -2       366       206       197       394      2334      1192      1135      2308      2335      2307
 -1      2209    6    0    1
 -2       209       400       215       216      2340      2100      1157      1173      2098       609
 -1      2210    6    0    1
 -2       379       400       193       371      2341      2319      1235      2342      2223      2246
 -1      2211    6    0    1
 -2       296       114       288       123      2337      1633      1334      2305       876      2085
 -1      2212    6    0    1
 -2       193       367       194       371      1144      1141       583      2246      2133      2118
 -1      2213    6    0    1
 -2       194       216       193       371      1230      1232       583      2118      1166      2246
 -1      2214    6    0    1
 -2       216       379       193       371      1236      1235      1232      1166      2342      2246
 -1      2215    6    0    1
 -2       217       216       194       371       610      1230      1228      1167      1166      2118
 -1      2216    6    0    1
 -2       204       195       368       372      1182      1985      1149      1185      1184      2343
 -1      2217    6    0    1
 -2       195       365       368       196      1132      1667      1985       586      1133      2194
 -1      2218    6    0    1
 -2       205       196       195       368      1188       586      1189      1148      2194      1985
 -1      2219    6    0    1
 -2       372       205       195       368      1198      1189      1184      2343      1148      1985
 -1      2220    6    0    1
 -2       197       366       196       206      1135      1134       587      1192      2334      1193
 -1      2221    6    0    1
 -2       291       125       290       116      1990      2328       704      1989       868      1933
 -1      2222    6    0    1
 -2       366       365       196       368      1124      1133      1134      2189      1667      2194
 -1      2223    6    0    1
 -2       366       374       206       369      2185      1204      2334      2184      2186      1150
 -1      2224    6    0    1
 -2       379       192       193       400      1255       582      1235      2341      2099      2319
 -1      2225    6    0    1
 -2       291       290       125       299       704      2328      1990      1325      1324      1885
 -1      2226    6    0    1
 -2       208       399       192       199      2298      2299      2300      1197      2344      1143
 -1      2227    6    0    1
 -2       209       210       200       370       602      1181      1183      1159      1158      2249
 -1      2228    6    0    1
 -2       210       201       200       367      1179       591      1181      2145      1142      1145
 -1      2229    6    0    1
 -2       367       370       200       210      2146      2249      1145      2145      1158      1181
 -1      2230    6    0    1
 -2       205       372       204       368      1198      1185       597      1148      2343      1149
 -1      2231    6    0    1
 -2       369       206       205       374      1150       598      1151      2186      1204      1191
 -1      2232    6    0    1
 -2       209       400       373       215      2340      2219      1186      1157      2100      1760
 -1      2233    6    0    1
 -2        72        79       359       280       830       831       829      2326      2345      2346
 -1      2234    6    0    1
 -2       209       400       371       373      2340      2223      1177      1186      2219      2221
 -1      2235    6    0    1
 -2       214       215       207       382       608      1156      1153      1252      1249      2313
 -1      2236    6    0    1
 -2       208       209       373       215       601      1186      1205      1155      1157      1760
 -1      2237    6    0    1
 -2       398       190       197       381      2347      1146      2348      2349      1244      2350
 -1      2238    6    0    1
 -2       368       365       211       189      1667      2209      1162      2330      1120      1238
 -1      2239    6    0    1
 -2       369       368       212       189      1152      1163      1164      2332      2330      1237
 -1      2240    6    0    1
 -2       383       219       218       357      1274       613      1273      2120      2136      1838
 -1      2241    6    0    1
 -2       306       307       225       363       722      1343      1342      1748      2020      1778
 -1      2242    6    0    1
 -2       384       363       225       307      1630      1778      1410      1395      2020      1343
 -1      2243    6    0    1
 -2       385       386       233       362      1409      1406      1383      1714      2230      1777
 -1      2244    6    0    1
 -2       398       190       198       197      2347      1126      2351      2348      1146       588
 -1      2245    6    0    1
 -2       311       312       236        67       727      1394      1385      2134      2140      2152
 -1      2246    6    0    1
 -2       312       237       236        67      1348       637      1394      2140      2128      2152
 -1      2247    6    0    1
 -2       398       190       191       198      2347       580      2352      2351      1126      1125
 -1      2248    6    0    1
 -2       268       269       260        92       676      1297      1301      2043      2045      2066
 -1      2249    6    0    1
 -2       262       267       261        93      1300      1303       668      2206      2142      1950
 -1      2250    6    0    1
 -2       267       268       261        93       675      1302      1303      2142      2143      1950
 -1      2251    6    0    1
 -2       263       266       262        94      1298      1299       669      1819      2216      2139
 -1      2252    6    0    1
 -2       192       399       198       199      2299      2353      1127      1143      2344       589
 -1      2253    6    0    1
 -2       324       274       273        78      1400       683      1364      2289      2292      2288
 -1      2254    6    0    1
 -2       274       281       273        78      1313      1311       683      2292      2275      2288
 -1      2255    6    0    1
 -2       280       281       274        72       691      1313      1314      2326      2276      2354
 -1      2256    6    0    1
 -2       198       399       192       382      2353      2299      1127      2338      2312      1248
 -1      2257    6    0    1
 -2       198       399       207       199      2353      2302      1201       589      2344      1203
 -1      2258    6    0    1
 -2       275       276       279        73       685      1310      1312      2355      2285      2287
 -1      2259    6    0    1
 -2       275       279       280        73      1312       690      1315      2355      2287      2325
 -1      2260    6    0    1
 -2       354       280       279        73      1504       690      1457      2284      2325      2287
 -1      2261    6    0    1
 -2       207       399       198       382      2302      2353      1201      2313      2312      2338
 -1      2262    6    0    1
 -2       353       352       280        72       773      1516      1512      2327      2281      2326
 -1      2263    6    0    1
 -2       352       281       280        72      1492       691      1516      2281      2276      2326
 -1      2264    6    0    1
 -2       121       261       260        92      2262       667      2051       968      2041      2066
 -1      2265    6    0    1
 -2       309       385       308       134      1412      1411       724      2323      2309      2280
 -1      2266    6    0    1
 -2       121       260       261       295      2051       667      2262      2050      1403      1421
 -1      2267    6    0    1
 -2       336       309       308       134      1569       724      1568      2311      2323      2280
 -1      2268    6    0    1
 -2       386       385       309       362      1409      1412      1420      2230      1714      2240
 -1      2269    6    0    1
 -2       393       336       335       162      1500       754      1501      2265      2188      1695
 -1      2270    6    0    1
 -2       390       364       336       393      1843      1828      1509      1520      2258      1500
 -1      2271    6    0    1
 -2       397       209       371       373      2356      1177      2224      2220      1186      2221
 -1      2272    6    0    1
 -2       373       200       401       397      1187      2199      1759      2220      2248      2357
 -1      2273    6    0    1
 -2       169        14       342       140       550      1850      1849      1106      1086      2271
 -1      2274    6    0    1
 -2       397       209       370       371      2356      1159      2243      2224      1177      1176
 -1      2275    6    0    1
 -2       356         9        10        34      2250       482      2123       777      2251      1801
 -1      2276    6    0    1
 -2       397       209       200       370      2356      1183      2248      2243      1159      2249
 -1      2277    6    0    1
 -2        14        13        37       314       567      2058      2059      2254      2244       730
 -1      2278    6    0    1
 -2        14       140       314       342      1086      2225      2254      1850      2271      1578
 -1      2279    6    0    1
 -2       393        27       364        47      1508      2257      2258      2259      1977      1016
 -1      2280    6    0    1
 -2       398       190       381       191      2347      1244      2349      2352       580      1256
 -1      2281    6    0    1
 -2       401       193       192       400      2358       582      2198      2359      2319      2099
 -1      2282    6    0    1
 -2       397       209       373       200      2356      1186      2220      2248      1183      1187
 -1      2283    6    0    1
 -2       401       193       200       192      2358      1128      2199      2198       582      1129
 -1      2284    6    0    1
 -2       379       216       400       371      1236      2098      2341      2342      1166      2223
 -1      2285    6    0    1
 -2        65       244        50       243      2095      2266       792      2270       646      2268
 -1      2286    6    0    1
 -2        65        50       235       243       792      2267      1957      2270      2268      1261
 -1      2287    6    0    1
 -2       401       193       397       200      2358      2245      2357      2199      1128      2248
 -1      2288    6    0    1
 -2       379       216       192       400      1236      1245      1255      2341      2098      2099
 -1      2289    6    0    1
 -2        72        78       281       274       827      2275      2276      2354      2292      1313
 -1      2290    6    0    1
 -2       394       213       375       381      2360      2318      2361      2362      1243      2315
 -1      2291    6    0    1
 -2       401       193       400       397      2358      2319      2359      2357      2245      2222
 -1      2292    6    0    1
 -2       394       206       213       369      2335      1175      2360      2336      1150      1165
 -1      2293    6    0    1
 -2        72       173       353       352      1045      2235      2327      2281      2282       773
 -1      2294    6    0    1
 -2       394       213       206       375      2360      1175      2335      2361      2318      1195
 -1      2295    6    0    1
 -2       206       396       207       375      2363      2364       599      1195      2316      1206
 -1      2296    6    0    1
 -2       394       213       190       369      2360      1241      2306      2336      1165      2333
 -1      2297    6    0    1
 -2        73        79       275       276       825      2239      2355      2285      2286       685
 -1      2298    6    0    1
 -2       206       214       207       396      1154      1153       599      2363      2365      2364
 -1      2299    6    0    1
 -2       214       396       213       395      2365      2317       607      2366      2321      2322
 -1      2300    6    0    1
 -2       280        78       274        79      2367      2292      1314      2345       446      2291
 -1      2301    6    0    1
 -2       396       214       207       395      2365      1153      2364      2321      2366      2368
 -1      2302    6    0    1
 -2       394       213       381       190      2360      1243      2362      2306      1241      1244
 -1      2303    6    0    1
 -2       280        79       274       275      2345      2291      1314      1315      2239       684
 -1      2304    6    0    1
 -2        98       248       256        99      1689      1283      1640       470      2208      2241
 -1      2305    6    0    1
 -2       280        78        72       274      2367       827      2326      1314      2292      2354
 -1      2306    6    0    1
 -2       396       206       213       375      2363      1175      2317      2316      1195      2318
 -1      2307    6    0    1
 -2       214       206       213       396      1154      1175       607      2365      2363      2317
 -1      2308    6    0    1
 -2       280        79        73        72      2345       825      2325      2326       830       439
 -1      2309    6    0    1
 -2       280        78       359        72      2367       828      2346      2326       827       829
 -1      2310    6    0    1
 -2       134       362       309       385       953      2240      2323      2309      1714      1412
 -1      2311    6    0    1
 -2       280        79       275        73      2345      2239      1315      2325       825      2355
 -1      2312    6    0    1
 -2       398       198       207       197      2351      1201      2369      2348       588      1202
 -1      2313    6    0    1
 -2       366       189       368       369      1123      2330      2189      2184      2332      1152
 -1      2314    6    0    1
 -2       308       336       134       335      1568      2311      2280      1567       754      2310
 -1      2315    6    0    1
 -2       198       191       207       382      1125      2339      1201      2338      1253      2313
 -1      2316    6    0    1
 -2       280        78        79       359      2367       446      2345      2346       828       831
 -1      2317    6    0    1
 -2       399       208       376       199      2298      1199      2370      2344      1197      1200
 -1      2318    6    0    1
 -2       373       401       215       400      1759      1758      1760      2219      2359      2100
 -1      2319    6    0    1
 -2       213       191       214       395      1251      1250       607      2322      2371      2366
 -1      2320    6    0    1
 -2       381       191       213       395      1256      1251      1243      2320      2371      2322
 -1      2321    6    0    1
 -2       207       208       376       399       600      1199      1207      2302      2298      2370
 -1      2322    6    0    1
 -2       197       381       190       394      2350      1244      1146      2307      2362      2306
 -1      2323    6    0    1
 -2       401       192       215       400      2198      1246      1758      2359      2099      2100
 -1      2324    6    0    1
 -2        10        34         9       292      1801      2251       482      1805      1316      1771
 -1      2325    6    0    1
 -2       398       191       381       395      2352      1256      2349      2372      2371      2320
 -1      2326    6    0    1
 -2       207       191       398       395      2339      2352      2369      2368      2371      2372
 -1      2327    6    0    1
 -2       401       373       397       400      1759      2220      2357      2359      2219      2222
 -1      2328    6    0    1
 -2       208       200       401       373      1196      2199      1757      1205      1187      1759
 -1      2329    6    0    1
 -2       197       206       375       394      1192      1195      1194      2307      2335      2361
 -1      2330    6    0    1
 -2       375       398       197       381      2373      2348      1194      2315      2349      2350
 -1      2331    6    0    1
 -2       398       198       191       207      2351      1125      2352      2369      1201      2339
 -1      2332    6    0    1
 -2       214       191       207       395      1250      2339      1153      2366      2371      2368
 -1      2333    6    0    1
 -2       199       207       376       399      1203      1207      1200      2344      2302      2370
 -1      2334    6    0    1
 -2       134       307       308       335      2279       723      2280      2310      1566      1567
 -1      2335    6    0    1
 -2       133       307       134       335      2049      2279       511      1917      1566      2310
 -1      2336    6    0    1
 -2       197       375       381       394      1194      2315      2350      2307      2361      2362
 -1      2337    6    0    1
 -2       396       398       207       375      2374      2369      2364      2316      2373      1206
 -1      2338    6    0    1
 -2       396       381       398       375      2314      2349      2374      2316      2315      2373
 -1      2339    6    0    1
 -2       396       398       395       207      2374      2372      2321      2364      2369      2368
 -1      2340    6    0    1
 -2       396       381       395       398      2314      2320      2321      2374      2349      2372
 -1      2341    6    0    1
 -2       375       207       197       398      1206      1202      1194      2373      2369      2348
 -1      2342    6    0    1
 -2       192       208       199       401      2300      1197      1143      2198      1757      2200
 -1      2343    6    0    1
 -2       208       200       199       401      1196       590      1197      1757      2199      2200
 -3
    1PSTEP                         1           1           1          
  100CL  101 1.000000000        2374                     0    1           1
 -4  DISP        4    1
 -5  D1          1    2    1    0
 -5  D2          1    2    2    0
 -5  D3          1    2    3    0
 -5  ALL         1    2    0    0    1ALL
 -1         1-1.74615E-04-2.75450E-05-4.29498E-05
 -1         2 8.57659E-05 7.63593E-05 1.64342E-05
 -1         3-2.20222E-03 5.82519E-02 2.92439E-04
 -1         4-1.01100E-03 5.84260E-02-1.37343E-05
 -1         5-1.74666E-04-4.26139E-05 2.76650E-05
 -1         6 7.62846E-05 9.24516E-05-1.77448E-05
 -1         7-2.22932E-03 5.82720E-02 2.59310E-04
 -1         8-1.01911E-03 5.84598E-02 1.11054E-04
 -1         9-1.27252E-05-4.97191E-06-3.45283E-07
 -1        10-1.71043E-05 1.42896E-06 3.13177E-07
 -1        11-1.81930E-03 5.88403E-02 6.09636E-05
 -1        12-1.80688E-03 5.88591E-02 1.86831E-05
 -1        13-5.05342E-06-8.33434E-06 2.66255E-06
 -1        14-2.88011E-06 3.50992E-07 6.27494E-06
 -1        15-1.09686E-03 5.92656E-02 2.91647E-04
 -1        16-1.11961E-03 5.92719E-02 3.11074E-04
 -1        17-1.00000E+01-1.25872E-01-1.35547E-03
 -1        18-1.00000E+01 1.78237E-01-9.90355E-04
 -1        19-1.00000E+01 1.78673E-01-1.36364E-03
 -1        20-1.00000E+01-1.26071E-01-1.00912E-03
 -1        21-9.50268E-04 5.83569E-02-1.21719E-05
 -1        22 1.10341E-04 1.07183E-04 2.81501E-05
 -1        23-1.63510E-04-2.48606E-05-3.66575E-05
 -1        24-4.46672E-03 2.46914E-02-6.02813E-04
 -1        25-4.44383E-03 2.72384E-02 3.71539E-04
 -1        26-2.33483E-03 5.81158E-02 2.84068E-04
 -1        27-4.41847E-03 2.72406E-02-4.29683E-04
 -1        28-4.52855E-03 2.53271E-02 8.35140E-05
 -1        29-2.36994E-03 5.81386E-02 2.57421E-04
 -1        30-9.32814E-04 5.83705E-02 1.15243E-04
 -1        31-1.78821E-04-3.44056E-05 2.45717E-05
 -1        32 1.05081E-04 1.19055E-04-3.25861E-05
 -1        33 0.00000E+00 0.00000E+00 0.00000E+00
 -1        34 0.00000E+00 0.00000E+00 0.00000E+00
 -1        35-1.88519E-03 5.89304E-02 9.75508E-05
 -1        36-1.86675E-03 5.89462E-02-1.89627E-05
 -1        37 0.00000E+00 0.00000E+00 0.00000E+00
 -1        38 0.00000E+00 0.00000E+00 0.00000E+00
 -1        39-9.65745E-04 5.94041E-02 2.81361E-04
 -1        40-9.93817E-04 5.94104E-02 3.23951E-04
 -1        41-2.32099E-03 5.61867E-02 2.16809E-04
 -1        42-2.63962E-03 5.13735E-02 1.13889E-04
 -1        43-3.02256E-03 4.55771E-02 3.11488E-05
 -1        44-3.39264E-03 3.98449E-02-3.91877E-05
 -1        45-3.72128E-03 3.44684E-02-1.08199E-04
 -1        46-3.96130E-03 3.10086E-02-2.37211E-04
 -1        47-3.79407E-03 2.69519E-02-3.36918E-04
 -1        48-3.82074E-03 2.21312E-02 2.57082E-04
 -1        49-3.51383E-03 1.86623E-02 7.14397E-05
 -1        50-3.04541E-03 1.44130E-02 1.05520E-04
 -1        51-2.48244E-03 9.58274E-03 6.98522E-05
 -1        52-1.81639E-03 5.06124E-03 6.36153E-05
 -1        53-9.43171E-04 1.19116E-03 5.89930E-05
 -1        54-4.15996E-04 1.01645E-04 4.87372E-05
 -1        55-2.26795E-03 5.65590E-02 2.60585E-04
 -1        56-2.46273E-03 5.35292E-02 2.14654E-04
 -1        57-2.82212E-03 4.82533E-02 1.44814E-04
 -1        58-3.18671E-03 4.26031E-02 1.06545E-04
 -1        59-3.48921E-03 3.77191E-02 7.44605E-05
 -1        60-3.72941E-03 3.33725E-02 7.76135E-05
 -1        61-3.96577E-03 3.05082E-02 2.78947E-04
 -1        62-3.75742E-03 2.70803E-02 2.33773E-04
 -1        63-3.93010E-03 2.34559E-02-4.04113E-04
 -1        64-3.73075E-03 2.07326E-02-2.34364E-04
 -1        65-3.21275E-03 1.58967E-02-1.07159E-04
 -1        66-2.55239E-03 1.01566E-02-9.89547E-05
 -1        67-1.67134E-03 4.21988E-03-8.78018E-05
 -1        68-8.86842E-04 1.00308E-03-6.52969E-05
 -1        69-4.32017E-04 1.09208E-04-3.99990E-05
 -1        70-3.44201E-05-1.18644E-05 4.44174E-06
 -1        71 6.88261E-07-3.44387E-06 1.01532E-06
 -1        72-3.63842E-06-4.53618E-07 5.27895E-07
 -1        73-3.34354E-06 3.72574E-06-2.43215E-06
 -1        74-5.87725E-06 1.76190E-05-6.69721E-06
 -1        75 5.15283E-05 4.22084E-05-1.67523E-05
 -1        76-3.07460E-05-1.39783E-05-7.31564E-07
 -1        77-2.45412E-06-4.71765E-06 8.72844E-07
 -1        78-3.58664E-06-2.49380E-07-2.96608E-07
 -1        79-2.28876E-06 2.03410E-06-1.66336E-06
 -1        80-6.99264E-06 1.25461E-05-2.44307E-06
 -1        81 3.82379E-05 4.58041E-05 4.75136E-06
 -1        82 2.64716E-04 8.91215E-04-2.32821E-05
 -1        83 5.77930E-04 3.85657E-03-2.66608E-05
 -1        84 7.64146E-04 1.03600E-02-2.34214E-05
 -1        85 6.67660E-04 2.50152E-02 1.05521E-05
 -1        86 4.00002E-04 4.01375E-02 7.68569E-05
 -1        87 5.30600E-06 5.02075E-02 1.07691E-04
 -1        88-6.28453E-04 5.64694E-02 1.12807E-04
 -1        89 2.81338E-04 9.58598E-04 3.40756E-05
 -1        90 5.49785E-04 3.43357E-03 2.09304E-05
 -1        91 7.54438E-04 8.70061E-03-1.09300E-05
 -1        92 7.46061E-04 1.90038E-02-1.91961E-05
 -1        93 5.33697E-04 3.41267E-02 3.09822E-05
 -1        94 2.28063E-04 4.59025E-02 5.71409E-05
 -1        95-1.96705E-04 5.29670E-02 3.95744E-05
 -1        96-7.01746E-04 5.68813E-02 2.41719E-05
 -1        97-9.42123E-04 5.86324E-02 1.03821E-04
 -1        98-1.80959E-03 5.88867E-02 1.13312E-04
 -1        99-3.66452E-03 5.89237E-02 1.10958E-04
 -1       100-5.38634E-03 5.87273E-02 1.56168E-04
 -1       101-4.84673E-03 5.84895E-02 2.10206E-04
 -1       102-3.31388E-03 5.83148E-02 2.46773E-04
 -1       103-9.92335E-04 5.86534E-02 3.73295E-05
 -1       104-2.03637E-03 5.88905E-02 8.07441E-05
 -1       105-3.97736E-03 5.89058E-02 1.15825E-04
 -1       106-5.39964E-03 5.87031E-02 1.74876E-04
 -1       107-4.77291E-03 5.84621E-02 2.35107E-04
 -1       108-3.37856E-03 5.83071E-02 2.62019E-04
 -1       109-3.62633E-04 1.93565E-04 5.32266E-05
 -1       110-8.79649E-04 1.32798E-03 4.86502E-05
 -1       111-1.46303E-03 4.52679E-03 5.04373E-05
 -1       112-2.02944E-03 1.12760E-02 3.84623E-05
 -1       113-2.55496E-03 2.62808E-02 4.10222E-05
 -1       114-2.79085E-03 4.15948E-02 4.41657E-05
 -1       115-2.64203E-03 5.13465E-02 3.56428E-05
 -1       116-2.28415E-03 5.62799E-02 1.74693E-05
 -1       117-1.92565E-03 5.82569E-02 3.21316E-05
 -1       118-3.62998E-04 1.81108E-04-4.78792E-05
 -1       119-9.78322E-04 1.72810E-03-4.78514E-05
 -1       120-1.69130E-03 6.65827E-03-1.93877E-05
 -1       121-2.23413E-03 1.58342E-02 3.71061E-06
 -1       122-2.62132E-03 2.96464E-02 2.11108E-05
 -1       123-2.79426E-03 4.33594E-02 3.83765E-05
 -1       124-2.62128E-03 5.20157E-02 5.86370E-05
 -1       125-2.27537E-03 5.63951E-02 6.27192E-05
 -1       126-1.92070E-03 5.82351E-02 4.72892E-05
 -1       127-1.05562E-03 5.80256E-02 2.71936E-04
 -1       128-9.08341E-04 5.60978E-02 2.22104E-04
 -1       129-5.66880E-04 5.25051E-02 1.75585E-04
 -1       130-4.97836E-05 4.67500E-02 1.00125E-04
 -1       131 4.10970E-04 4.12657E-02 6.29668E-05
 -1       132 8.84271E-04 3.52746E-02 5.48646E-05
 -1       133 1.24905E-03 3.04370E-02 6.73040E-05
 -1       134 1.43049E-03 2.51616E-02 8.67208E-06
 -1       135 1.15531E-03 1.91694E-02-6.89859E-05
 -1       136 8.00016E-04 1.33186E-02-3.68604E-05
 -1       137 4.44156E-04 7.59036E-03-3.61331E-05
 -1       138 8.98252E-05 2.44552E-03-6.12444E-06
 -1       139-7.47934E-05 3.56677E-04-8.21333E-06
 -1       140-7.59937E-05-6.31431E-05-3.29837E-05
 -1       141-3.05573E-06-8.46177E-07-3.39437E-06
 -1       142-6.99209E-07 9.97484E-07-2.82576E-06
 -1       143-7.09579E-08-2.81579E-07-9.39054E-07
 -1       144-1.30856E-07-7.22207E-08-4.48373E-07
 -1       145-1.05766E-07 2.38040E-07-1.29691E-08
 -1       146-9.66861E-08 1.43260E-06 5.63571E-07
 -1       147 1.67167E-06 5.23940E-06 2.00208E-06
 -1       148-5.52995E-07 2.95237E-07-4.92336E-07
 -1       149-9.94314E-04 5.86567E-02 7.90951E-05
 -1       150-1.55372E-03 5.83286E-02 1.22625E-04
 -1       151-3.57957E-03 5.83046E-02 1.32802E-04
 -1       152-5.27833E-03 5.85649E-02 1.53693E-04
 -1       153-5.05567E-03 5.88783E-02 2.04431E-04
 -1       154-3.90025E-03 5.90872E-02 2.43435E-04
 -1       155-2.49508E-03 5.92180E-02 2.80149E-04
 -1       156-1.07831E-03 5.80138E-02 2.80566E-04
 -1       157-9.26614E-04 5.60788E-02 2.42196E-04
 -1       158-5.94863E-04 5.25467E-02 2.01026E-04
 -1       159-5.78605E-05 4.65388E-02 1.30982E-04
 -1       160 4.20941E-04 4.08979E-02 9.04337E-05
 -1       161 9.09071E-04 3.47810E-02 2.83220E-05
 -1       162 1.34292E-03 2.85771E-02-2.56261E-05
 -1       163 1.37681E-03 2.26816E-02 4.42533E-05
 -1       164 9.81465E-04 1.63545E-02-3.29738E-05
 -1       165 6.29285E-04 1.05087E-02-3.72486E-05
 -1       166 2.81360E-04 5.04193E-03-1.23077E-05
 -1       167 5.84568E-06 1.39021E-03 1.92971E-05
 -1       168-8.96213E-05 2.14888E-04 1.60464E-05
 -1       169-8.02903E-05-5.70322E-05 7.68042E-06
 -1       170-2.48329E-06 3.61834E-07 1.36984E-06
 -1       171-2.04493E-07 4.96914E-07 1.62163E-06
 -1       172-3.95087E-08-1.47585E-07 4.57559E-07
 -1       173-1.02003E-07 4.80367E-08 1.73321E-07
 -1       174-1.24798E-07 5.46831E-07-2.03889E-07
 -1       175 1.24661E-07 2.78471E-06-1.39107E-06
 -1       176 1.17101E-06 8.18011E-06 8.46876E-07
 -1       177-1.02497E-03 5.86950E-02 4.96864E-05
 -1       178-1.23340E-03 5.84089E-02 8.33326E-05
 -1       179-2.64855E-03 5.82713E-02 1.27423E-04
 -1       180-4.83047E-03 5.84596E-02 1.67609E-04
 -1       181-5.29878E-03 5.88058E-02 2.17354E-04
 -1       182-3.94564E-03 5.90994E-02 2.69801E-04
 -1       183-2.51736E-03 5.92343E-02 2.93675E-04
 -1       184-1.00000E+01-1.24863E-01-1.13989E-03
 -1       185-1.00000E+01-1.25165E-01-1.22538E-03
 -1       186-1.00000E+01 1.77648E-01-1.24405E-03
 -1       187-1.00000E+01 1.77279E-01-1.17877E-03
 -1       188-6.84365E-02 4.55339E-02-3.81168E-03
 -1       189-4.01086E-01 7.28910E-02-5.50860E-03
 -1       190-1.24493E+00 1.04215E-01-4.78196E-03
 -1       191-3.15087E+00 1.39950E-01-4.28225E-03
 -1       192-5.74551E+00 1.63902E-01-3.26300E-03
 -1       193-7.74682E+00 1.72591E-01-3.60252E-03
 -1       194-9.07307E+00 1.77326E-01-2.57827E-03
 -1       195-7.07393E-02 4.56325E-02 3.71293E-03
 -1       196-4.09829E-01 7.30027E-02 5.07570E-03
 -1       197-1.27865E+00 1.04290E-01 4.47051E-03
 -1       198-3.22419E+00 1.40364E-01 4.60894E-03
 -1       199-5.66413E+00 1.64362E-01 2.64532E-03
 -1       200-7.71621E+00 1.72887E-01 1.75359E-03
 -1       201-9.05927E+00 1.76984E-01 4.16524E-04
 -1       202-5.49701E-03 2.82732E-02-6.63330E-05
 -1       203-5.59635E-03 2.80852E-02-9.62582E-05
 -1       204-7.08261E-02 6.65857E-03-3.85438E-03
 -1       205-4.09882E-01-2.08787E-02-5.57310E-03
 -1       206-1.27869E+00-5.21733E-02-5.31362E-03
 -1       207-3.22418E+00-8.80335E-02-6.00992E-03
 -1       208-5.66411E+00-1.12037E-01-4.42764E-03
 -1       209-7.71622E+00-1.20665E-01-3.82215E-03
 -1       210-9.05927E+00-1.24760E-01-2.73299E-03
 -1       211-6.83464E-02 6.94638E-03 3.67203E-03
 -1       212-4.01044E-01-2.01665E-02 5.05626E-03
 -1       213-1.24491E+00-5.15431E-02 3.92960E-03
 -1       214-3.15083E+00-8.73286E-02 2.92060E-03
 -1       215-5.74551E+00-1.11271E-01 1.49422E-03
 -1       216-7.74678E+00-1.19934E-01 1.61360E-03
 -1       217-9.07307E+00-1.24571E-01 2.88742E-04
 -1       218-5.52913E-03 2.43866E-02-1.21880E-04
 -1       219-5.55857E-03 2.44568E-02-9.79588E-05
 -1       220-2.44491E-03 5.62844E-02 2.47748E-04
 -1       221-2.71814E-03 5.30456E-02 1.97725E-04
 -1       222-3.19276E-03 4.76377E-02 1.21477E-04
 -1       223-3.65019E-03 4.21139E-02 6.67318E-05
 -1       224-4.04034E-03 3.72386E-02 4.22912E-06
 -1       225-4.32472E-03 3.29109E-02-6.47069E-05
 -1       226-4.49723E-03 2.96719E-02-3.06907E-04
 -1       227-4.51464E-03 3.01885E-02-1.29877E-05
 -1       228-4.34958E-03 3.35682E-02 5.92344E-06
 -1       229-4.00194E-03 3.82641E-02-1.27331E-05
 -1       230-3.51550E-03 4.42059E-02 4.57214E-05
 -1       231-3.00669E-03 5.02103E-02 1.08915E-04
 -1       232-2.54021E-03 5.56120E-02 2.12572E-04
 -1       233-4.47904E-03 2.25822E-02-7.97989E-05
 -1       234-4.05897E-03 1.86310E-02-7.58315E-05
 -1       235-3.28514E-03 1.26024E-02-5.87083E-05
 -1       236-2.28866E-03 6.20936E-03-6.80186E-05
 -1       237-1.18365E-03 1.55325E-03-4.93696E-05
 -1       238-5.47162E-04 2.42144E-04-2.82963E-05
 -1       239-5.18722E-04 2.17081E-04 3.04523E-05
 -1       240-1.15535E-03 1.51258E-03 3.34226E-05
 -1       241-2.10699E-03 5.28027E-03 3.63089E-05
 -1       242-2.84448E-03 9.53577E-03 3.29027E-05
 -1       243-3.43044E-03 1.37563E-02 4.90697E-05
 -1       244-3.85650E-03 1.73079E-02 4.23873E-05
 -1       245-4.21917E-03 2.00886E-02-2.15249E-05
 -1       246-4.57400E-03 2.28320E-02 6.69598E-05
 -1       247-1.06509E-03 5.87201E-02 4.17098E-05
 -1       248-2.14045E-03 5.89824E-02 8.70475E-05
 -1       249-4.01762E-03 5.89768E-02 1.19795E-04
 -1       250-5.39482E-03 5.87179E-02 1.81204E-04
 -1       251-4.83635E-03 5.84147E-02 2.38639E-04
 -1       252-3.47973E-03 5.82076E-02 2.61974E-04
 -1       253-3.84894E-03 5.82675E-02 2.30218E-04
 -1       254-5.27556E-03 5.85651E-02 1.82193E-04
 -1       255-4.85548E-03 5.88985E-02 1.15790E-04
 -1       256-2.55537E-03 5.90215E-02 1.00948E-04
 -1       257-1.14726E-03 5.87829E-02 1.02034E-04
 -1       258 4.96088E-04 1.31663E-03 4.83856E-05
 -1       259 8.98561E-04 4.72775E-03 1.71985E-05
 -1       260 1.13020E-03 1.23914E-02-2.29042E-05
 -1       261 1.06531E-03 2.59296E-02-2.12204E-07
 -1       262 7.64668E-04 4.15178E-02 5.52572E-05
 -1       263 2.78711E-04 5.10813E-02 4.74323E-05
 -1       264-3.70170E-04 5.62037E-02 1.82280E-05
 -1       265-3.09539E-04 5.58894E-02 1.23167E-04
 -1       266 3.96734E-04 4.95315E-02 1.14010E-04
 -1       267 8.09287E-04 3.98563E-02 7.94316E-05
 -1       268 1.06621E-03 2.53312E-02 7.41752E-06
 -1       269 1.12532E-03 1.12444E-02-3.12456E-05
 -1       270 8.87286E-04 4.53668E-03-3.70187E-05
 -1       271 4.62873E-04 1.16522E-03-3.57089E-05
 -1       272-1.85424E-05-1.48583E-05 7.78459E-06
 -1       273-5.01824E-07-4.43246E-06 2.94382E-06
 -1       274-2.60268E-06-2.66797E-07 3.85276E-07
 -1       275-2.56627E-06 1.90520E-06-1.74649E-06
 -1       276-7.94539E-06 1.26255E-05-3.61932E-06
 -1       277 2.70335E-05 4.02093E-05 2.70184E-06
 -1       278 2.07927E-05 3.01617E-05-1.28720E-05
 -1       279-4.97845E-06 8.75257E-06-3.83420E-06
 -1       280-2.45022E-06 7.41903E-07-1.23483E-06
 -1       281 6.80384E-07-1.90326E-06-8.99706E-07
 -1       282-8.11589E-06-1.20420E-05-2.59633E-06
 -1       283-4.82879E-04 2.56338E-04 8.05406E-05
 -1       284-1.10130E-03 1.52826E-03 8.15313E-05
 -1       285-1.78386E-03 4.90233E-03 7.10962E-05
 -1       286-2.42645E-03 1.19883E-02 4.97274E-05
 -1       287-2.96620E-03 2.65073E-02 4.52748E-05
 -1       288-3.19307E-03 4.14209E-02 3.34109E-05
 -1       289-2.99615E-03 5.09530E-02 1.28837E-05
 -1       290-2.54167E-03 5.60192E-02-1.44042E-05
 -1       291-2.06540E-03 5.81560E-02-7.91982E-06
 -1       292-3.72926E-04 1.54040E-04-7.83511E-05
 -1       293-1.10545E-03 1.55396E-03-7.83207E-05
 -1       294-1.97708E-03 6.42102E-03-3.29382E-05
 -1       295-2.60974E-03 1.57236E-02 3.27390E-06
 -1       296-3.03279E-03 2.99120E-02 2.20392E-05
 -1       297-3.18796E-03 4.37532E-02 4.33897E-05
 -1       298-2.92286E-03 5.23523E-02 7.65516E-05
 -1       299-2.44851E-03 5.66598E-02 9.16511E-05
 -1       300-1.97653E-03 5.83351E-02 7.20212E-05
 -1       301-9.24268E-04 5.81798E-02 2.66690E-04
 -1       302-7.60091E-04 5.63375E-02 2.05681E-04
 -1       303-3.84189E-04 5.30362E-02 1.48543E-04
 -1       304 2.61753E-04 4.72040E-02 4.44074E-05
 -1       305 8.38713E-04 4.16262E-02-2.33435E-05
 -1       306 1.41781E-03 3.56860E-02-8.50563E-05
 -1       307 1.94154E-03 3.07545E-02-1.34171E-04
 -1       308 2.19356E-03 2.51615E-02 7.33577E-06
 -1       309 1.74188E-03 1.90369E-02 4.16946E-05
 -1       310 1.24935E-03 1.30468E-02 6.74305E-05
 -1       311 7.47758E-04 7.28114E-03 4.42532E-05
 -1       312 2.37237E-04 2.22959E-03 6.32089E-05
 -1       313-2.44191E-05 2.49184E-04 4.05749E-05
 -1       314-6.99723E-05-8.87410E-05-1.35987E-05
 -1       315-1.02314E-03 5.87219E-02 1.06414E-04
 -1       316-1.44377E-03 5.82622E-02 1.45621E-04
 -1       317-3.51467E-03 5.82151E-02 1.39120E-04
 -1       318-5.27608E-03 5.85380E-02 1.52207E-04
 -1       319-5.03121E-03 5.89274E-02 1.99896E-04
 -1       320-3.80248E-03 5.91939E-02 2.39274E-04
 -1       321-2.35977E-03 5.93518E-02 2.80818E-04
 -1       322 0.00000E+00 0.00000E+00 0.00000E+00
 -1       323 0.00000E+00 0.00000E+00 0.00000E+00
 -1       324 0.00000E+00 0.00000E+00 0.00000E+00
 -1       325 0.00000E+00 0.00000E+00 0.00000E+00
 -1       326 0.00000E+00 0.00000E+00 0.00000E+00
 -1       327 0.00000E+00 0.00000E+00 0.00000E+00
 -1       328 0.00000E+00 0.00000E+00 0.00000E+00
 -1       329-9.35590E-04 5.79063E-02 2.96095E-04
 -1       330-7.22668E-04 5.57845E-02 2.69721E-04
 -1       331-2.72404E-04 5.17864E-02 2.32521E-04
 -1       332 4.03738E-04 4.55605E-02 1.86892E-04
 -1       333 9.97034E-04 3.98499E-02 1.82789E-04
 -1       334 1.55250E-03 3.39334E-02 1.37568E-04
 -1       335 2.06568E-03 2.88361E-02 1.20124E-04
 -1       336 2.12979E-03 2.30143E-02-7.97858E-05
 -1       337 1.62330E-03 1.77577E-02-1.37863E-04
 -1       338 1.15993E-03 1.20612E-02-1.32549E-04
 -1       339 6.49374E-04 6.10914E-03-9.24250E-05
 -1       340 1.89293E-04 1.77791E-03-4.24840E-05
 -1       341-2.74744E-05 2.74055E-04-2.38419E-05
 -1       342-7.57284E-05-8.58026E-05-1.80673E-05
 -1       343-1.03060E-03 5.87541E-02 1.99091E-05
 -1       344-1.19707E-03 5.83552E-02 6.18950E-05
 -1       345-2.56938E-03 5.81817E-02 1.19003E-04
 -1       346-4.72834E-03 5.83868E-02 1.70035E-04
 -1       347-5.31995E-03 5.88147E-02 2.19297E-04
 -1       348-4.03420E-03 5.91784E-02 2.76863E-04
 -1       349-2.54676E-03 5.93624E-02 3.03095E-04
 -1       350 0.00000E+00 0.00000E+00 0.00000E+00
 -1       351 0.00000E+00 0.00000E+00 0.00000E+00
 -1       352 0.00000E+00 0.00000E+00 0.00000E+00
 -1       353 0.00000E+00 0.00000E+00 0.00000E+00
 -1       354 0.00000E+00 0.00000E+00 0.00000E+00
 -1       355 0.00000E+00 0.00000E+00 0.00000E+00
 -1       356 0.00000E+00 0.00000E+00 0.00000E+00
 -1       357-4.03959E-03 2.25746E-02 1.46958E-05
 -1       358-4.15006E-03 3.10961E-02-6.62924E-06
 -1       359-3.99687E-06 4.22275E-07-8.06249E-07
 -1       360-1.72956E-03 2.84440E-02 5.38157E-04
 -1       361-1.68388E-03 2.58914E-02 1.25421E-05
 -1       362-1.69899E-03 2.23956E-02-5.38151E-04
 -1       363-1.38128E-03 3.20712E-02 4.68580E-04
 -1       364-1.63875E-03 2.43841E-02 3.00772E-04
 -1       365-2.22730E-01 6.06432E-02-4.86518E-04
 -1       366-9.02187E-01 9.23162E-02-5.79451E-04
 -1       367-8.79904E+00 1.75470E-01-1.26748E-03
 -1       368-2.27907E-01-8.52281E-03-5.25867E-04
 -1       369-9.32048E-01-4.08401E-02-7.35644E-04
 -1       370-8.39351E+00-1.22565E-01-2.04320E-03
 -1       371-8.41569E+00-1.22441E-01-3.12343E-05
 -1       372-1.64064E-01 2.60654E-02-1.94066E-04
 -1       373-6.92919E+00 2.60890E-02-9.51863E-04
 -1       374-6.98781E-01 2.60855E-02-3.76329E-04
 -1       375-2.02209E+00 2.60449E-02-5.60024E-04
 -1       376-4.51277E+00 2.61108E-02-7.70921E-04
 -1       377-4.41048E-03 3.15241E-02 9.84168E-07
 -1       378-1.60950E-01 2.63751E-02-1.71395E-04
 -1       379-6.96312E+00 2.62923E-02-9.55102E-04
 -1       380-6.88282E-01 2.63380E-02-3.75132E-04
 -1       381-1.98597E+00 2.63777E-02-5.34631E-04
 -1       382-4.59579E+00 2.63317E-02-7.97452E-04
 -1       383-4.19055E-03 1.98802E-02 1.95551E-05
 -1       384-2.24790E-03 2.84257E-02 5.97729E-04
 -1       385-2.20689E-03 2.38794E-02-5.22782E-04
 -1       386-1.49868E-03 2.04451E-02-4.32147E-04
 -1       387-2.50441E-03 2.60476E-02 2.00848E-05
 -1       388-1.40957E-03 1.85949E-02 2.51299E-04
 -1       389-1.45752E-03 2.10780E-02 4.02695E-04
 -1       390-1.35164E-03 2.33419E-02 4.32380E-04
 -1       391-2.37137E-03 2.86370E-02-5.07383E-04
 -1       392-1.62816E-03 3.19338E-02-3.96695E-04
 -1       393-1.67597E-03 2.59471E-02-8.92600E-05
 -1       394-1.18760E+00 2.73117E-02-3.96791E-04
 -1       395-2.53113E+00-9.78135E-03-6.06275E-04
 -1       396-2.10477E+00-2.74755E-02-1.61966E-03
 -1       397-8.07106E+00 6.34798E-02-9.00103E-04
 -1       398-2.45725E+00 6.56931E-02-4.64385E-04
 -1       399-4.65414E+00 2.62063E-02-7.94418E-04
 -1       400-7.04700E+00-6.04997E-03-8.42204E-04
 -1       401-6.42947E+00 7.53070E-02-6.93581E-04
 -1       402-2.21931E-03 5.82726E-02 2.74738E-04
 -1       403-2.05461E-04-4.10444E-05-9.04971E-06
 -1       404-2.26025E-03 5.72912E-02 2.39455E-04
 -1       405-2.46100E-03 5.40621E-02 1.65948E-04
 -1       406-2.81633E-03 4.87415E-02 6.79223E-05
 -1       407-3.19991E-03 4.29026E-02-4.92175E-06
 -1       408-3.54933E-03 3.72916E-02-8.55110E-05
 -1       409-3.80509E-03 3.25945E-02-1.43226E-04
 -1       410-3.93409E-03 2.94702E-02-3.58507E-04
 -1       411-3.96341E-03 2.38032E-02 2.01035E-04
 -1       412-3.67591E-03 2.01827E-02 1.52563E-04
 -1       413-3.26288E-03 1.64986E-02 1.05695E-04
 -1       414-2.75680E-03 1.18580E-02 7.90607E-05
 -1       415-2.14091E-03 7.10599E-03 6.28803E-05
 -1       416-1.36219E-03 2.72610E-03 6.12137E-05
 -1       417-6.63281E-04 4.87224E-04 5.69853E-05
 -1       418-2.80597E-04-1.86271E-05 4.17023E-05
 -1       419-2.22960E-03 5.74491E-02 2.73666E-04
 -1       420-2.36275E-03 5.51718E-02 2.36514E-04
 -1       421-2.62416E-03 5.11493E-02 1.75803E-04
 -1       422-2.99166E-03 4.56308E-02 1.33611E-04
 -1       423-3.33144E-03 4.02752E-02 1.00344E-04
 -1       424-3.61506E-03 3.56224E-02 9.01196E-05
 -1       425-3.87106E-03 3.19910E-02 2.04303E-04
 -1       426-3.87135E-03 2.92366E-02 2.42769E-04
 -1       427-3.88104E-03 2.46477E-02-2.65410E-04
 -1       428-3.84813E-03 2.19119E-02-3.54923E-04
 -1       429-3.46936E-03 1.82772E-02-1.43041E-04
 -1       430-2.87447E-03 1.28127E-02-1.03457E-04
 -1       431-2.09933E-03 6.80950E-03-1.01144E-04
 -1       432-1.26434E-03 2.28013E-03-7.94971E-05
 -1       433-6.49285E-04 4.45282E-04-5.78784E-05
 -1       434-2.85752E-04-2.47729E-05-3.32755E-05
 -1       435 1.00389E-04 8.66215E-05 5.20925E-07
 -1       436-9.84859E-05-1.68723E-05 1.27916E-05
 -1       437-4.86339E-06-7.32418E-06 9.46939E-07
 -1       438-1.74116E-06-1.52007E-06 6.03040E-07
 -1       439-3.04636E-06 8.50694E-07-8.00386E-07
 -1       440-4.52601E-06 7.69355E-06-3.58777E-06
 -1       441 8.85448E-06 2.65466E-05-1.04928E-05
 -1       442 8.98280E-05 7.44211E-05-2.05963E-05
 -1       443-8.70342E-05-1.66453E-05-1.68562E-05
 -1       444-4.67926E-06-9.42988E-06 4.87875E-06
 -1       445-3.50346E-06-1.35550E-06 4.46503E-07
 -1       446-3.29646E-06 3.72239E-07-9.55901E-07
 -1       447-3.31272E-06 5.51205E-06-2.28227E-06
 -1       448 6.10702E-08 2.36022E-05-1.70726E-06
 -1       449 8.70193E-05 6.86891E-05 1.41147E-05
 -1       450-9.80571E-04 5.84670E-02 5.53516E-05
 -1       451 1.46770E-04 3.57342E-04-1.98371E-05
 -1       452 4.39898E-04 2.15826E-03-2.54185E-05
 -1       453 7.08040E-04 6.86936E-03-2.51164E-05
 -1       454 7.50143E-04 1.74572E-02-1.38815E-05
 -1       455 5.52361E-04 3.25526E-02 4.55484E-05
 -1       456 2.39889E-04 4.53418E-02 9.97013E-05
 -1       457-2.71777E-04 5.36973E-02 1.13061E-04
 -1       458-8.56016E-04 5.76615E-02 1.07731E-04
 -1       459 1.60631E-04 3.85670E-04 2.63764E-05
 -1       460 4.27891E-04 2.03662E-03 2.86773E-05
 -1       461 6.76143E-04 5.88667E-03 2.70919E-06
 -1       462 7.67461E-04 1.36959E-02-2.07842E-05
 -1       463 6.54039E-04 2.64940E-02 4.57955E-06
 -1       464 3.97405E-04 4.00777E-02 4.70892E-05
 -1       465 3.22460E-05 4.96013E-02 5.03220E-05
 -1       466-4.37216E-04 5.51147E-02 2.96800E-05
 -1       467-8.97071E-04 5.78239E-02 1.42673E-05
 -1       468-8.58162E-04 5.85070E-02 1.02141E-04
 -1       469-1.30778E-03 5.87883E-02 1.07992E-04
 -1       470-2.76680E-03 5.89267E-02 1.11617E-04
 -1       471-4.83647E-03 5.88491E-02 1.25489E-04
 -1       472-5.33641E-03 5.86148E-02 1.83397E-04
 -1       473-4.20463E-03 5.83999E-02 2.28759E-04
 -1       474-2.79957E-03 5.82843E-02 2.55128E-04
 -1       475-8.63430E-04 5.85154E-02 1.64663E-05
 -1       476-1.43602E-03 5.88082E-02 6.40298E-05
 -1       477-3.06465E-03 5.89256E-02 1.04155E-04
 -1       478-4.95059E-03 5.88210E-02 1.42528E-04
 -1       479-5.31783E-03 5.85888E-02 2.07455E-04
 -1       480-4.17809E-03 5.83812E-02 2.49644E-04
 -1       481-2.82241E-03 5.82707E-02 2.71639E-04
 -1       482-1.19949E-05-1.12036E-07-4.52481E-07
 -1       483-1.84160E-03 5.88085E-02 4.17593E-05
 -1       484-1.86030E-04 5.47398E-05 3.61002E-05
 -1       485-6.24069E-04 5.98196E-04 4.65877E-05
 -1       486-1.18906E-03 2.72827E-03 5.30168E-05
 -1       487-1.77419E-03 7.67424E-03 4.70669E-05
 -1       488-2.32590E-03 1.85634E-02 3.86627E-05
 -1       489-2.70265E-03 3.39459E-02 4.26242E-05
 -1       490-2.76229E-03 4.66947E-02 3.62714E-05
 -1       491-2.48649E-03 5.40684E-02 2.33436E-05
 -1       492-2.10318E-03 5.74896E-02 1.78236E-05
 -1       493-1.84368E-03 5.85855E-02 3.25124E-05
 -1       494-1.74038E-04 5.19946E-05-3.84332E-05
 -1       495-6.74860E-04 7.12383E-04-5.13756E-05
 -1       496-1.37504E-03 3.87119E-03-2.99730E-05
 -1       497-2.00535E-03 1.10336E-02-8.50141E-06
 -1       498-2.44548E-03 2.26299E-02 1.05481E-05
 -1       499-2.73113E-03 3.65309E-02 2.77204E-05
 -1       500-2.73394E-03 4.78965E-02 4.80162E-05
 -1       501-2.46102E-03 5.44196E-02 5.95154E-05
 -1       502-2.10305E-03 5.75146E-02 5.77116E-05
 -1       503-1.84480E-03 5.85634E-02 5.05755E-05
 -1       504-1.08224E-03 5.86501E-02 2.90879E-04
 -1       505-9.87225E-04 5.71150E-02 2.43465E-04
 -1       506-7.49500E-04 5.44601E-02 1.95341E-04
 -1       507-3.31055E-04 4.99128E-02 1.29896E-04
 -1       508 1.67522E-04 4.41994E-02 7.36472E-05
 -1       509 6.39133E-04 3.84469E-02 4.54195E-05
 -1       510 1.06596E-03 3.29891E-02 5.96958E-05
 -1       511 1.38535E-03 2.78631E-02 6.80293E-05
 -1       512 1.30712E-03 2.19471E-02-6.36132E-05
 -1       513 9.71638E-04 1.60786E-02-4.31422E-05
 -1       514 6.09685E-04 1.02086E-02-3.75282E-05
 -1       515 2.46393E-04 4.60025E-03-1.95506E-05
 -1       516-1.60638E-05 1.13551E-03 6.05451E-07
 -1       517-9.12458E-05 4.24843E-05-1.53376E-05
 -1       518-4.51438E-05-5.12964E-05-1.72907E-05
 -1       519-3.39901E-06-4.43653E-06-4.41911E-06
 -1       520-1.68512E-06 1.52124E-06-2.27280E-06
 -1       521 8.06259E-08-3.79663E-07-1.06034E-06
 -1       522-1.09912E-07-1.02778E-07-4.31737E-07
 -1       523-1.22748E-07 3.28229E-08-1.82476E-07
 -1       524-6.06038E-08 3.48007E-07 1.50400E-07
 -1       525 2.32001E-08 2.06792E-06 6.28608E-07
 -1       526 1.89346E-06 4.88940E-06 1.04472E-06
 -1       527-2.28916E-06-4.34489E-06 7.36230E-07
 -1       528-1.31526E-03 5.87854E-02 4.77282E-05
 -1       529-1.04849E-03 5.84564E-02 1.02561E-04
 -1       530-2.57414E-03 5.82696E-02 1.21150E-04
 -1       531-4.64525E-03 5.84225E-02 1.40319E-04
 -1       532-5.40776E-03 5.87135E-02 1.74510E-04
 -1       533-4.58054E-03 5.89826E-02 2.23585E-04
 -1       534-3.25418E-03 5.91590E-02 2.60778E-04
 -1       535-1.79926E-03 5.92501E-02 3.06848E-04
 -1       536-1.10866E-03 5.86486E-02 2.93024E-04
 -1       537-1.01117E-03 5.71015E-02 2.57057E-04
 -1       538-7.74693E-04 5.44635E-02 2.24214E-04
 -1       539-3.54155E-04 4.98367E-02 1.61560E-04
 -1       540 1.66999E-04 4.39004E-02 1.03320E-04
 -1       541 6.55405E-04 3.79763E-02 6.78320E-05
 -1       542 1.10578E-03 3.18753E-02-5.24287E-05
 -1       543 1.41257E-03 2.56054E-02 2.79579E-05
 -1       544 1.16195E-03 1.92431E-02-3.42036E-06
 -1       545 7.91818E-04 1.32521E-02-3.66087E-05
 -1       546 4.43540E-04 7.47907E-03-2.25550E-05
 -1       547 1.29728E-04 2.88299E-03 7.17695E-06
 -1       548-5.31806E-05 6.60542E-04 2.40332E-05
 -1       549-9.40307E-05 1.51536E-05 1.55856E-05
 -1       550-5.01763E-05-4.16624E-05 7.58212E-06
 -1       551-3.23885E-06-2.15733E-06 4.32506E-06
 -1       552-1.31055E-06 1.17604E-06 1.42992E-06
 -1       553 1.11925E-07-1.67419E-07 8.58402E-07
 -1       554-8.47336E-08-4.03967E-08 2.97262E-07
 -1       555-1.24418E-07 2.02612E-07 2.56115E-08
 -1       556-1.54188E-07 1.45699E-06-5.18723E-07
 -1       557 1.71953E-06 4.34074E-06-5.29647E-07
 -1       558 1.74430E-06-5.59234E-06-2.81946E-06
 -1       559-1.36500E-03 5.88092E-02 4.44529E-05
 -1       560-9.66161E-04 5.85341E-02 6.81359E-05
 -1       561-1.89568E-03 5.83109E-02 1.09286E-04
 -1       562-3.90020E-03 5.83447E-02 1.54491E-04
 -1       563-5.36893E-03 5.86276E-02 1.87772E-04
 -1       564-4.82286E-03 5.89512E-02 2.45428E-04
 -1       565-3.29363E-03 5.91730E-02 2.82997E-04
 -1       566-1.82613E-03 5.92650E-02 3.02931E-04
 -1       567-2.04555E-06-2.05214E-06 1.31024E-06
 -1       568-1.09938E-03 5.92575E-02 3.04750E-04
 -1       569-1.00000E+01 2.61406E-02-1.15275E-03
 -1       570-1.00000E+01-1.25456E-01-1.25809E-03
 -1       571-1.00000E+01-1.25012E-01-1.23913E-03
 -1       572-1.00000E+01-1.25576E-01-1.10384E-03
 -1       573-1.00000E+01 2.63403E-02-1.16763E-03
 -1       574-1.00000E+01 1.78241E-01-1.29260E-03
 -1       575-1.00000E+01 1.77432E-01-1.29784E-03
 -1       576-1.00000E+01 1.77721E-01-1.07382E-03
 -1       577-2.01060E-02 3.60890E-02-2.47330E-03
 -1       578-2.00271E-01 5.93472E-02-4.78910E-03
 -1       579-7.69608E-01 8.87232E-02-5.25724E-03
 -1       580-2.10910E+00 1.22169E-01-4.53489E-03
 -1       581-4.38676E+00 1.52311E-01-3.86301E-03
 -1       582-6.73136E+00 1.68243E-01-3.42723E-03
 -1       583-8.40533E+00 1.75329E-01-3.05476E-03
 -1       584-9.53534E+00 1.78100E-01-1.94112E-03
 -1       585-2.11212E-02 3.59524E-02 2.24993E-03
 -1       586-2.05273E-01 5.94066E-02 4.49869E-03
 -1       587-7.89706E-01 8.90039E-02 4.76416E-03
 -1       588-2.15998E+00 1.22404E-01 4.53156E-03
 -1       589-4.38616E+00 1.52542E-01 3.57456E-03
 -1       590-6.67493E+00 1.68663E-01 2.20373E-03
 -1       591-8.38374E+00 1.75273E-01 9.92095E-04
 -1       592-9.52862E+00 1.77717E-01-4.32600E-04
 -1       593-5.31016E-03 2.77268E-02-1.87676E-04
 -1       594-5.68938E-03 2.81390E-02-1.02438E-04
 -1       595-5.35153E-03 2.76224E-02 9.50207E-05
 -1       596-2.10553E-02 1.60512E-02-2.55884E-03
 -1       597-2.05257E-01-7.21070E-03-4.85669E-03
 -1       598-7.89690E-01-3.67865E-02-5.55403E-03
 -1       599-2.15999E+00-7.02782E-02-5.69680E-03
 -1       600-4.38617E+00-1.00277E-01-5.09931E-03
 -1       601-6.67495E+00-1.16428E-01-4.09566E-03
 -1       602-8.38365E+00-1.23028E-01-3.18225E-03
 -1       603-9.52857E+00-1.25386E-01-2.04046E-03
 -1       604-2.01809E-02 1.65570E-02 2.15055E-03
 -1       605-2.00296E-01-6.68810E-03 4.48661E-03
 -1       606-7.69619E-01-3.61270E-02 4.48053E-03
 -1       607-2.10907E+00-6.94466E-02 3.41081E-03
 -1       608-4.38675E+00-9.96533E-02 2.30472E-03
 -1       609-6.73140E+00-1.15692E-01 1.52677E-03
 -1       610-8.40539E+00-1.22511E-01 8.33685E-04
 -1       611-9.53539E+00-1.25463E-01-4.91767E-04
 -1       612-5.35078E-03 2.45231E-02-2.28906E-04
 -1       613-5.70899E-03 2.43683E-02-1.34901E-04
 -1       614-5.29939E-03 2.49541E-02 3.75361E-06
 -1       615-4.09710E-03 2.61249E-02 8.64427E-07
 -1       616-2.38596E-03 5.72464E-02 2.63958E-04
 -1       617-2.57844E-03 5.48012E-02 2.22955E-04
 -1       618-2.93696E-03 5.05945E-02 1.56165E-04
 -1       619-3.40909E-03 4.50603E-02 1.01711E-04
 -1       620-3.83585E-03 3.97895E-02 4.56653E-05
 -1       621-4.19381E-03 3.51373E-02-1.44112E-05
 -1       622-4.46358E-03 3.13227E-02-1.20465E-04
 -1       623-4.61015E-03 2.84756E-02-1.13282E-04
 -1       624-4.60385E-03 2.87437E-02-1.43761E-04
 -1       625-4.39896E-03 3.17484E-02 1.11416E-06
 -1       626-4.17287E-03 3.60200E-02-1.55971E-05
 -1       627-3.75100E-03 4.14133E-02 2.12176E-05
 -1       628-3.24402E-03 4.74554E-02 7.59101E-05
 -1       629-2.74972E-03 5.32191E-02 1.62669E-04
 -1       630-2.43519E-03 5.69560E-02 2.38591E-04
 -1       631-2.35365E-03 5.81403E-02 2.69791E-04
 -1       632-4.22872E-03 2.61707E-02-2.16757E-04
 -1       633-4.50042E-03 2.36870E-02-2.77096E-04
 -1       634-4.26087E-03 2.06213E-02-3.61742E-05
 -1       635-3.66526E-03 1.54467E-02-5.43278E-05
 -1       636-2.76948E-03 9.07589E-03-6.44579E-05
 -1       637-1.71398E-03 3.42690E-03-5.74344E-05
 -1       638-8.48556E-04 7.37272E-04-4.02856E-05
 -1       639-3.49548E-04 3.66767E-05-2.67502E-05
 -1       640-1.95589E-04-4.79819E-05-4.48192E-06
 -1       641-3.46104E-04 3.57469E-05 3.52154E-05
 -1       642-8.20388E-04 7.01823E-04 3.44653E-05
 -1       643-1.61594E-03 3.05850E-03 3.53472E-05
 -1       644-2.46800E-03 7.21912E-03 3.21834E-05
 -1       645-3.13263E-03 1.15319E-02 3.60136E-05
 -1       646-3.64090E-03 1.54926E-02 5.48269E-05
 -1       647-4.01607E-03 1.87186E-02-1.19033E-05
 -1       648-4.41273E-03 2.13876E-02-7.76701E-06
 -1       649-4.62407E-03 2.38863E-02 1.54148E-04
 -1       650-8.81948E-04 5.85366E-02 1.75578E-05
 -1       651-1.52494E-03 5.88869E-02 6.84084E-05
 -1       652-3.13518E-03 5.90069E-02 1.08602E-04
 -1       653-4.95016E-03 5.88629E-02 1.47810E-04
 -1       654-5.33769E-03 5.85726E-02 2.12640E-04
 -1       655-4.26209E-03 5.83076E-02 2.51252E-04
 -1       656-2.93694E-03 5.81559E-02 2.69128E-04
 -1       657-3.16357E-03 5.81934E-02 2.43898E-04
 -1       658-4.76857E-03 5.84185E-02 2.05453E-04
 -1       659-5.37745E-03 5.87484E-02 1.45205E-04
 -1       660-3.89791E-03 5.89908E-02 9.93732E-05
 -1       661-1.76069E-03 5.89537E-02 1.04165E-04
 -1       662-8.97184E-04 5.85831E-02 1.05831E-04
 -1       663-9.09576E-04 5.83848E-02 5.64777E-05
 -1       664 3.01760E-04 5.55645E-04 4.44117E-05
 -1       665 7.20747E-04 2.79403E-03 3.63173E-05
 -1       666 1.06764E-03 8.30264E-03-7.62690E-06
 -1       667 1.12769E-03 1.90058E-02-2.14984E-05
 -1       668 9.42573E-04 3.37272E-02 3.03752E-05
 -1       669 5.64362E-04 4.65135E-02 5.73071E-05
 -1       670-2.01535E-05 5.39053E-02 3.10707E-05
 -1       671-6.69746E-04 5.74894E-02 9.04140E-06
 -1       672-6.31029E-04 5.73578E-02 1.16441E-04
 -1       673 8.48247E-05 5.30471E-02 1.22667E-04
 -1       674 6.38745E-04 4.48465E-02 1.04831E-04
 -1       675 9.55510E-04 3.25713E-02 4.60660E-05
 -1       676 1.12750E-03 1.80769E-02-1.91419E-05
 -1       677 1.04409E-03 7.65232E-03-3.39647E-05
 -1       678 6.96279E-04 2.61045E-03-3.60844E-05
 -1       679 2.79934E-04 4.96819E-04-3.60790E-05
 -1       680 1.19045E-04 1.17518E-04-1.16927E-07
 -1       681-6.67637E-05-2.07136E-05-9.47423E-06
 -1       682 2.28324E-06-9.22774E-06 9.98541E-06
 -1       683-2.03664E-06-1.21016E-06 1.78299E-06
 -1       684-2.93505E-06 3.39088E-07-6.15388E-07
 -1       685-3.98060E-06 5.39174E-06-2.83897E-06
 -1       686-5.00626E-06 2.13269E-05-3.29297E-06
 -1       687 8.05406E-05 6.64568E-05 1.63487E-05
 -1       688 6.82640E-05 5.99623E-05-2.43479E-05
 -1       689-5.18749E-06 1.80121E-05-6.81228E-06
 -1       690-2.99715E-06 3.04141E-06-2.34325E-06
 -1       691-2.24120E-06-4.50845E-07-5.67891E-07
 -1       692 4.08980E-06-4.80554E-06-2.78314E-06
 -1       693-5.13952E-05-1.86269E-05 3.80253E-06
 -1       694 0.00000E+00 0.00000E+00 0.00000E+00
 -1       695-1.92103E-03 5.88818E-02 3.96840E-05
 -1       696-2.24964E-04 5.81321E-05 5.91343E-05
 -1       697-7.96942E-04 7.34448E-04 7.84326E-05
 -1       698-1.46239E-03 3.01172E-03 8.06474E-05
 -1       699-2.13847E-03 8.20613E-03 6.41211E-05
 -1       700-2.72783E-03 1.90486E-02 4.73926E-05
 -1       701-3.10720E-03 3.39721E-02 4.00344E-05
 -1       702-3.13854E-03 4.63982E-02 1.88987E-05
 -1       703-2.79395E-03 5.37405E-02-4.90711E-06
 -1       704-2.30645E-03 5.73036E-02-1.91896E-05
 -1       705-1.92739E-03 5.86008E-02-8.87808E-07
 -1       706-1.68451E-04 4.15625E-05-5.46248E-05
 -1       707-7.41884E-04 6.19924E-04-8.25762E-05
 -1       708-1.58203E-03 3.65754E-03-5.24347E-05
 -1       709-2.33832E-03 1.08514E-02-1.56195E-05
 -1       710-2.83979E-03 2.27023E-02 1.06312E-05
 -1       711-3.13522E-03 3.68624E-02 2.97298E-05
 -1       712-3.08295E-03 4.82652E-02 5.93124E-05
 -1       713-2.69923E-03 5.47264E-02 8.34113E-05
 -1       714-2.21537E-03 5.76939E-02 8.49253E-05
 -1       715-1.90379E-03 5.86521E-02 8.11625E-05
 -1       716-9.52676E-04 5.87930E-02 2.82553E-04
 -1       717-8.47978E-04 5.73089E-02 2.31713E-04
 -1       718-5.83028E-04 5.48297E-02 1.73864E-04
 -1       719-8.64078E-05 5.04327E-02 8.87090E-05
 -1       720 5.35272E-04 4.46193E-02 2.72919E-06
 -1       721 1.11773E-03 3.88327E-02-6.65731E-05
 -1       722 1.66248E-03 3.33619E-02-1.22437E-04
 -1       723 2.13270E-03 2.80413E-02-3.69301E-05
 -1       724 1.99784E-03 2.18621E-02 4.12251E-06
 -1       725 1.48680E-03 1.58659E-02 6.83436E-05
 -1       726 9.84402E-04 9.90758E-03 5.26730E-05
 -1       727 4.71607E-04 4.32929E-03 5.49421E-05
 -1       728 8.19746E-05 9.68935E-04 5.94500E-05
 -1       729-6.20287E-05-2.10860E-05 1.99221E-05
 -1       730-3.94556E-05-5.52389E-05-1.06261E-05
 -1       731-1.36956E-03 5.88671E-02 8.18046E-05
 -1       732-1.00308E-03 5.84546E-02 1.27728E-04
 -1       733-2.48565E-03 5.81865E-02 1.34582E-04
 -1       734-4.62235E-03 5.83639E-02 1.42092E-04
 -1       735-5.40138E-03 5.87241E-02 1.71518E-04
 -1       736-4.52617E-03 5.90611E-02 2.19114E-04
 -1       737-3.13803E-03 5.92807E-02 2.58128E-04
 -1       738-1.66388E-03 5.93872E-02 3.03072E-04
 -1       739 0.00000E+00 0.00000E+00 0.00000E+00
 -1       740 0.00000E+00 0.00000E+00 0.00000E+00
 -1       741 0.00000E+00 0.00000E+00 0.00000E+00
 -1       742 0.00000E+00 0.00000E+00 0.00000E+00
 -1       743 0.00000E+00 0.00000E+00 0.00000E+00
 -1       744 0.00000E+00 0.00000E+00 0.00000E+00
 -1       745 0.00000E+00 0.00000E+00 0.00000E+00
 -1       746 0.00000E+00 0.00000E+00 0.00000E+00
 -1       747-9.79034E-04 5.86669E-02 3.06379E-04
 -1       748-8.40545E-04 5.69109E-02 2.78287E-04
 -1       749-5.13628E-04 5.39634E-02 2.53888E-04
 -1       750 3.84319E-05 4.89606E-02 2.05536E-04
 -1       751 6.85723E-04 4.28812E-02 1.77924E-04
 -1       752 1.26909E-03 3.70148E-02 1.73248E-04
 -1       753 1.79616E-03 3.15252E-02 1.02854E-04
 -1       754 2.18364E-03 2.59128E-02 2.18885E-05
 -1       755 1.85955E-03 2.01996E-02-1.22940E-04
 -1       756 1.37683E-03 1.47531E-02-1.40158E-04
 -1       757 8.91632E-04 8.79105E-03-1.12374E-04
 -1       758 4.00884E-04 3.57689E-03-6.47751E-05
 -1       759 6.39294E-05 8.54600E-04-2.54246E-05
 -1       760-6.20188E-05 2.89492E-05-1.92276E-05
 -1       761-5.18625E-05-6.69979E-05-1.05044E-05
 -1       762-1.39984E-03 5.88927E-02 1.31152E-05
 -1       763-9.48113E-04 5.85376E-02 3.97760E-05
 -1       764-1.83883E-03 5.82411E-02 9.41170E-05
 -1       765-3.79681E-03 5.82637E-02 1.52387E-04
 -1       766-5.34236E-03 5.85960E-02 1.90279E-04
 -1       767-4.88081E-03 5.89952E-02 2.50539E-04
 -1       768-3.36035E-03 5.92772E-02 2.91656E-04
 -1       769-1.77990E-03 5.94002E-02 3.14202E-04
 -1       770 0.00000E+00 0.00000E+00 0.00000E+00
 -1       771 0.00000E+00 0.00000E+00 0.00000E+00
 -1       772 0.00000E+00 0.00000E+00 0.00000E+00
 -1       773 0.00000E+00 0.00000E+00 0.00000E+00
 -1       774 0.00000E+00 0.00000E+00 0.00000E+00
 -1       775 0.00000E+00 0.00000E+00 0.00000E+00
 -1       776 0.00000E+00 0.00000E+00 0.00000E+00
 -1       777 0.00000E+00 0.00000E+00 0.00000E+00
 -1       778 0.00000E+00 0.00000E+00 0.00000E+00
 -1       779-9.66770E-04 5.93906E-02 3.05887E-04
 -1       780-2.24477E-03 5.74699E-02 2.60667E-04
 -1       781-2.91881E-04-5.45129E-05 1.01015E-05
 -1       782-2.30083E-03 5.63966E-02 2.38485E-04
 -1       783-2.72815E-03 4.99432E-02 1.23948E-04
 -1       784-2.92284E-03 4.70265E-02 9.11117E-05
 -1       785-3.10804E-03 4.42218E-02 6.73047E-05
 -1       786-3.28978E-03 4.13708E-02 3.88081E-05
 -1       787-3.44343E-03 3.89302E-02 1.35502E-05
 -1       788-3.60279E-03 3.63231E-02-1.61836E-05
 -1       789-3.52940E-03 2.47305E-02 1.12846E-04
 -1       790-3.91350E-03 2.22588E-02 1.66671E-04
 -1       791-3.36534E-03 1.71417E-02-1.54628E-05
 -1       792-3.12933E-03 1.49988E-02 4.28624E-06
 -1       793-2.80113E-03 1.20583E-02-5.85164E-06
 -1       794-2.51897E-03 9.77415E-03-1.12848E-05
 -1       795-4.33862E-04 4.32018E-05 6.05105E-06
 -1       796-3.72954E-03 3.41883E-02-1.56175E-05
 -1       797-3.85512E-03 2.95915E-02 3.21814E-04
 -1       798-4.03845E-03 3.10096E-02 1.72139E-04
 -1       799-3.98687E-03 2.27330E-02-2.35473E-04
 -1       800-3.38318E-03 2.47787E-02-5.38809E-05
 -1       801-3.90211E-03 2.12228E-02-2.26972E-04
 -1       802-3.70915E-03 1.93728E-02-5.05984E-05
 -1       803-3.78939E-03 2.04166E-02 1.02802E-04
 -1       804-2.55211E-03 5.25358E-02 1.65004E-04
 -1       805-3.93705E-03 3.25979E-02-3.76365E-05
 -1       806-4.12147E-03 3.12393E-02-2.34232E-04
 -1       807-3.94349E-03 2.94745E-02-3.44310E-04
 -1       808-2.17857E-03 7.25588E-03-1.67312E-05
 -1       809-6.44320E-04 3.62900E-04 1.39766E-06
 -1       810-3.12299E-03 2.75232E-02-1.78493E-04
 -1       811-1.74733E-03 4.55441E-03-1.48877E-05
 -1       812-9.20757E-04 1.02874E-03-2.98893E-06
 -1       813-2.39151E-03 5.49787E-02 2.10804E-04
 -1       814-4.03942E-03 3.20124E-02 8.36568E-05
 -1       815-1.29911E-03 2.35041E-03-9.90764E-06
 -1       816-1.13635E-04-2.23003E-05-8.15629E-07
 -1       817 1.01582E-04 8.75998E-05-3.73415E-06
 -1       818 5.16082E-05 4.81877E-05-4.99572E-06
 -1       819 8.76057E-06 2.52271E-05-5.16701E-06
 -1       820-4.64509E-05-2.13813E-05 1.00384E-06
 -1       821-5.23976E-06 1.36820E-05-3.92087E-06
 -1       822-1.43987E-05-1.17549E-05 4.35446E-06
 -1       823-4.91471E-06-4.72404E-06 1.00473E-06
 -1       824-2.82799E-06 6.37409E-06-2.69356E-06
 -1       825-2.46709E-06 2.89239E-06-1.75607E-06
 -1       826-5.74446E-06-1.25183E-06 6.50281E-07
 -1       827-5.27100E-06-3.71994E-07 7.96363E-08
 -1       828-3.96454E-06-6.56442E-08-5.35096E-07
 -1       829-4.54055E-06-1.93513E-08-2.52457E-07
 -1       830-4.19704E-06 5.61663E-07-7.48644E-07
 -1       831-3.25211E-06 1.12233E-06-1.23650E-06
 -1       832 1.50180E-04 3.57816E-04 5.67376E-07
 -1       833-8.83763E-04 5.78373E-02 5.98769E-05
 -1       834-6.65145E-04 5.66867E-02 6.54892E-05
 -1       835 2.66877E-04 9.32549E-04 4.20353E-06
 -1       836 4.15905E-04 1.99977E-03 7.03267E-07
 -1       837 5.56501E-04 3.64890E-03-4.42737E-06
 -1       838-9.90745E-05 5.16387E-02 7.73241E-05
 -1       839-4.04058E-04 5.48722E-02 7.18544E-05
 -1       840 6.77957E-04 6.13237E-03-1.20950E-05
 -1       841 1.16494E-04 4.80993E-02 7.94367E-05
 -1       842 7.55045E-04 9.52349E-03-1.90600E-05
 -1       843 3.17302E-04 4.30610E-02 7.36451E-05
 -1       844 7.61995E-04 1.45961E-02-2.14742E-05
 -1       845 4.66075E-04 3.71281E-02 5.12411E-05
 -1       846 7.09967E-04 2.19809E-02-8.38650E-06
 -1       847 6.04949E-04 2.95743E-02 2.43335E-05
 -1       848-8.37455E-04 5.85113E-02 6.19644E-05
 -1       849-2.78759E-03 5.82871E-02 2.64214E-04
 -1       850-3.34648E-03 5.83184E-02 2.54405E-04
 -1       851-9.45566E-04 5.86449E-02 7.07790E-05
 -1       852-1.33066E-03 5.87894E-02 8.41655E-05
 -1       853-1.90403E-03 5.88836E-02 9.55827E-05
 -1       854-2.86220E-03 5.89228E-02 1.06158E-04
 -1       855-4.80428E-03 5.84754E-02 2.22388E-04
 -1       856-4.15021E-03 5.83885E-02 2.39644E-04
 -1       857-3.81164E-03 5.89130E-02 1.12137E-04
 -1       858-5.32230E-03 5.86012E-02 1.96081E-04
 -1       859-5.38362E-03 5.87138E-02 1.64979E-04
 -1       860-4.92631E-03 5.88289E-02 1.35476E-04
 -1       861-1.78528E-04 7.58203E-05 4.49524E-07
 -1       862-1.87377E-03 5.85351E-02 4.45809E-05
 -1       863-3.69010E-04 2.14890E-04 2.75626E-06
 -1       864-6.19896E-04 6.15137E-04-2.50374E-06
 -1       865-1.23185E-03 3.01351E-03 1.03668E-05
 -1       866-9.26523E-04 1.55092E-03 3.50744E-07
 -1       867-2.10218E-03 5.74875E-02 3.84686E-05
 -1       868-2.27284E-03 5.62967E-02 4.08107E-05
 -1       869-1.94916E-03 5.82021E-02 3.95402E-05
 -1       870-1.57209E-03 5.56473E-03 1.24873E-05
 -1       871-2.46166E-03 5.43189E-02 4.24572E-05
 -1       872-1.86769E-03 8.90028E-03 1.77477E-05
 -1       873-2.62290E-03 5.16585E-02 4.62785E-05
 -1       874-2.13238E-03 1.35262E-02 1.68942E-05
 -1       875-2.74135E-03 4.74979E-02 4.31530E-05
 -1       876-2.78873E-03 4.24682E-02 3.92296E-05
 -1       877-2.40173E-03 2.09711E-02 2.65587E-05
 -1       878-2.72202E-03 3.56141E-02 3.70563E-05
 -1       879-2.58730E-03 2.79625E-02 2.87010E-05
 -1       880-1.63341E-03 5.81415E-02 3.00367E-04
 -1       881-1.64024E-03 5.87506E-02 3.12365E-04
 -1       882-1.60465E-03 5.63379E-02 2.66327E-04
 -1       883-1.61911E-03 5.73315E-02 2.80525E-04
 -1       884-1.43347E-03 4.19660E-02 1.98670E-04
 -1       885-1.46169E-03 4.48082E-02 1.87629E-04
 -1       886-1.38562E-03 3.65428E-02 2.57387E-04
 -1       887-1.40848E-03 3.95856E-02 2.06816E-04
 -1       888-1.10215E-03 1.45412E-02-2.24223E-04
 -1       889-1.18294E-03 1.74450E-02-2.58700E-04
 -1       890-9.26495E-04 8.79309E-03-1.87411E-04
 -1       891-1.02303E-03 1.16456E-02-2.03292E-04
 -1       892-1.95126E-04-3.00375E-05-7.92764E-05
 -1       893-2.98413E-04 2.06482E-04-1.01041E-04
 -1       894-5.93998E-05-3.40956E-05-3.11110E-05
 -1       895-1.30464E-04-5.47822E-05-4.46878E-05
 -1       896-8.39210E-05-1.38127E-05-3.44578E-05
 -1       897-1.54846E-05-4.56545E-07-9.05428E-06
 -1       898-3.55452E-05 2.96131E-07-1.73798E-05
 -1       899-1.71552E-06-2.41320E-06-2.47520E-06
 -1       900-7.83470E-07-2.79075E-06-2.87652E-06
 -1       901-1.69968E-06 1.51975E-05 1.38060E-06
 -1       902-2.54463E-06 8.05203E-06 1.57592E-08
 -1       903 4.36542E-05 3.45168E-05 1.45556E-05
 -1       904 1.86678E-05 2.88120E-05 7.71483E-06
 -1       905-4.06600E-05 2.76539E-06-5.25832E-06
 -1       906 3.57761E-05 2.33316E-05 8.99997E-06
 -1       907-1.18856E-04 1.12606E-04-7.34045E-06
 -1       908-1.46582E-03 5.77257E-02 1.32453E-05
 -1       909-1.44926E-03 5.66543E-02 2.21133E-05
 -1       910-1.43810E-03 5.86117E-02-1.99463E-05
 -1       911-1.45675E-03 5.83317E-02-2.17975E-06
 -1       912-1.00061E-03 5.85799E-02-5.39949E-06
 -1       913-4.39173E-03 5.87108E-02 2.38914E-04
 -1       914-4.93109E-03 5.86999E-02 2.18574E-04
 -1       915-2.96199E-03 5.87308E-02 2.71966E-04
 -1       916-3.65527E-03 5.87233E-02 2.58522E-04
 -1       917-2.35155E-03 5.87435E-02 2.94536E-04
 -1       918-9.09598E-04 5.85543E-02 2.48251E-05
 -1       919-1.21809E-03 5.85702E-02 6.00004E-05
 -1       920-1.78761E-03 5.85893E-02 7.74713E-05
 -1       921-1.98839E-04 4.35950E-04 3.16999E-06
 -1       922-2.71812E-04 1.30158E-03-5.89596E-07
 -1       923-3.36674E-04 2.50015E-03 8.07450E-08
 -1       924-4.42645E-04 4.93719E-03-4.79747E-06
 -1       925-5.14938E-04 7.65851E-03-9.65245E-06
 -1       926-1.49259E-03 4.75347E-02 1.94058E-04
 -1       927-1.37189E-03 3.43821E-02 3.03692E-04
 -1       928-2.82667E-03 2.94724E-02 5.55760E-04
 -1       929-2.77186E-03 2.77345E-02 4.09342E-04
 -1       930-2.70711E-03 2.63566E-02 7.39542E-05
 -1       931-2.76289E-03 2.48153E-02-2.86793E-04
 -1       932-1.70487E-03 2.71973E-02 3.00677E-04
 -1       933-2.80164E-03 2.29635E-02-6.07134E-04
 -1       934-2.74361E-03 2.14492E-02-5.34469E-04
 -1       935-1.21831E-03 1.99678E-02-3.61334E-04
 -1       936-3.94222E-04 6.19175E-04-1.11922E-04
 -1       937-1.58518E-03 5.49090E-02 2.45196E-04
 -1       938-1.41556E-03 5.48381E-02 2.65516E-05
 -1       939-5.31773E-04 1.61804E-03-1.27162E-04
 -1       940-1.52619E-03 5.05581E-02 2.04766E-04
 -1       941-1.55501E-03 5.30394E-02 2.23713E-04
 -1       942-1.42222E-04 2.67158E-02 1.53632E-04
 -1       943-2.62570E-04 2.94310E-02 4.14977E-04
 -1       944-6.60782E-04 3.24010E-03-1.46449E-04
 -1       945-8.05996E-04 5.74335E-03-1.69531E-04
 -1       946-1.37488E-03 5.25107E-02 3.32534E-05
 -1       947-2.63439E-03 3.11703E-02 5.14515E-04
 -1       948-1.58084E-03 3.03666E-02 5.61578E-04
 -1       949-1.01135E-04 3.12827E-02 3.75439E-04
 -1       950-2.57497E-03 3.27674E-02 3.65263E-04
 -1       951-1.68600E-03 2.40278E-02-3.55353E-04
 -1       952-2.32932E-04 2.07360E-02-3.41268E-04
 -1       953-1.57692E-04 2.37900E-02-1.53900E-04
 -1       954-1.89073E-04 3.37207E-02 2.80916E-04
 -1       955-1.31383E-04 2.55211E-02 1.05730E-05
 -1       956-1.48134E-06 2.91937E-06-6.07108E-07
 -1       957-1.43919E-06 1.50006E-06-8.62072E-07
 -1       958-1.33060E-03 4.90827E-02 3.64427E-05
 -1       959-1.25270E-03 4.46500E-02 3.82238E-05
 -1       960-2.83029E-03 5.85955E-02 9.83105E-05
 -1       961-3.78764E-03 5.86193E-02 1.14928E-04
 -1       962-6.58951E-04 1.21616E-02-1.13314E-05
 -1       963-5.37496E-03 5.86832E-02 1.87962E-04
 -1       964-2.13357E-06-2.83131E-07-1.49680E-06
 -1       965-2.15087E-06-7.66953E-07-1.80976E-06
 -1       966-1.16917E-03 3.87657E-02 2.87061E-05
 -1       967-1.03989E-03 3.18899E-02 1.80244E-05
 -1       968-7.59870E-04 1.74112E-02-1.06600E-05
 -1       969-4.78755E-03 5.86428E-02 1.33909E-04
 -1       970-5.35781E-03 5.86651E-02 1.56655E-04
 -1       971-9.06470E-04 2.42689E-02 2.05788E-06
 -1       972-1.93828E-06 2.63235E-07-1.27359E-06
 -1       973-1.66729E-03 5.87656E-02 2.74499E-04
 -1       974-1.65740E-03 5.81427E-02 2.51837E-04
 -1       975-1.63656E-03 5.71594E-02 2.21508E-04
 -1       976-1.62983E-03 5.61416E-02 1.92868E-04
 -1       977-1.50037E-03 4.60791E-02-5.92338E-06
 -1       978-1.47831E-03 4.33823E-02-5.21558E-05
 -1       979-1.44483E-03 4.03941E-02-1.04511E-04
 -1       980-1.41810E-03 3.74341E-02-1.70822E-04
 -1       981-1.41574E-03 3.28000E-02-3.39774E-04
 -1       982-1.35025E-03 2.97680E-02-4.65556E-04
 -1       983-1.22378E-03 2.04606E-02 3.45009E-04
 -1       984-1.18871E-03 1.74880E-02 1.99989E-04
 -1       985-4.89356E-04 1.27264E-03 1.19609E-04
 -1       986-3.82661E-04 5.78852E-04 1.10174E-04
 -1       987-2.76086E-04 1.40073E-04 9.54448E-05
 -1       988-1.92175E-04-2.15528E-05 7.83923E-05
 -1       989-1.31900E-04-5.39233E-05 5.55108E-05
 -1       990-6.84522E-05-3.61962E-05 3.67959E-05
 -1       991-7.40853E-05-9.56104E-06 2.41240E-05
 -1       992-2.04360E-06 7.67974E-06-2.54806E-06
 -1       993-9.02182E-07 1.51621E-05-5.58052E-06
 -1       994 1.86728E-05 2.56569E-05-1.08651E-05
 -1       995 4.04769E-05 2.79070E-05-1.37824E-05
 -1       996-3.29105E-05 2.42196E-05 6.97191E-06
 -1       997-2.02882E-04 4.17030E-04 5.92934E-07
 -1       998-2.61788E-04 1.08376E-03-2.72645E-06
 -1       999-3.34656E-04 2.43244E-03 2.05514E-06
 -1      1000-4.12716E-04 4.17360E-03 7.03772E-06
 -1      1001-1.44634E-03 5.63928E-02 8.63101E-05
 -1      1002-1.47378E-03 5.75898E-02 9.71508E-05
 -1      1003-1.46148E-03 5.83547E-02 1.08368E-04
 -1      1004-1.44808E-03 5.86373E-02 1.00840E-04
 -1      1005-1.02192E-03 5.85983E-02 1.04693E-04
 -1      1006-9.04849E-04 5.85691E-02 1.10331E-04
 -1      1007-1.05388E-03 5.85809E-02 1.14945E-04
 -1      1008-1.50520E-03 5.86069E-02 1.22234E-04
 -1      1009-2.22571E-03 5.85905E-02 1.30271E-04
 -1      1010-3.65077E-03 5.87401E-02 2.56438E-04
 -1      1011-2.93762E-03 5.87452E-02 2.67002E-04
 -1      1012-2.37620E-03 5.87578E-02 2.72349E-04
 -1      1013-4.45697E-03 5.87266E-02 2.40184E-04
 -1      1014-3.37526E-05 1.68281E-06 1.35621E-05
 -1      1015-2.75756E-03 2.32076E-02 4.11095E-04
 -1      1016-2.69174E-03 2.54631E-02 2.30237E-05
 -1      1017-1.22058E-03 2.25386E-02 4.66305E-04
 -1      1018-1.12180E-03 1.53416E-02 1.85237E-04
 -1      1019-9.67466E-04 1.00175E-02 1.39787E-04
 -1      1020-1.03500E-03 1.23433E-02 1.51885E-04
 -1      1021-1.37709E-05 6.30680E-07 9.07543E-06
 -1      1022 1.07437E-07-1.22716E-06 4.40623E-06
 -1      1023-1.24534E-03 2.76285E-02-3.90014E-04
 -1      1024-8.56654E-04 7.07295E-03 1.25993E-04
 -1      1025-1.88240E-06 2.91608E-06-8.59307E-07
 -1      1026 5.54773E-05 1.53502E-05-7.79544E-06
 -1      1027-5.12366E-03 5.87097E-02 2.18282E-04
 -1      1028-3.17761E-03 5.86049E-02 1.40985E-04
 -1      1029-1.67000E-04 2.65960E-02-1.00674E-04
 -1      1030-1.54278E-03 4.91570E-02 4.87725E-05
 -1      1031-1.40122E-03 3.46430E-02-2.61201E-04
 -1      1032-7.66133E-04 5.03319E-03 1.22769E-04
 -1      1033-1.60638E-03 5.45452E-02 1.60942E-04
 -1      1034-1.56989E-03 5.19845E-02 1.04391E-04
 -1      1035-1.44643E-04 2.35332E-02 3.16025E-04
 -1      1036-6.31516E-04 2.87137E-03 1.20569E-04
 -1      1037-5.89944E-07-1.61859E-06 2.75684E-06
 -1      1038-1.32491E-04 1.32996E-04 1.48173E-05
 -1      1039-5.07334E-04 7.25121E-03 8.64304E-06
 -1      1040-6.19134E-04 1.08099E-02 9.30905E-06
 -1      1041-1.40157E-03 5.41954E-02 8.80206E-05
 -1      1042-5.41298E-03 5.86978E-02 1.92104E-04
 -1      1043-1.34746E-03 5.07945E-02 8.85948E-05
 -1      1044-1.96635E-06-6.13876E-07 1.81317E-06
 -1      1045-1.84301E-06 2.21317E-08 1.00214E-06
 -1      1046-1.78906E-06 1.15286E-06 1.19229E-07
 -1      1047-1.28234E-03 4.60554E-02 7.93684E-05
 -1      1048-4.31390E-03 5.86443E-02 1.46461E-04
 -1      1049-5.20184E-03 5.86706E-02 1.64334E-04
 -1      1050-1.20096E-03 4.08686E-02 7.10748E-05
 -1      1051-7.77701E-04 1.79479E-02 1.48121E-05
 -1      1052-9.39709E-04 2.56457E-02 3.05388E-05
 -1      1053-1.07609E-03 3.31998E-02 4.82009E-05
 -1      1054-5.35730E-08 2.44274E-07 4.47073E-07
 -1      1055 7.16096E-07-1.74016E-06-3.22889E-07
 -1      1056-5.56819E-07 5.87699E-08-1.93990E-07
 -1      1057-4.61671E-08 1.03933E-07-4.69485E-08
 -1      1058-1.67977E-07-1.51218E-08-2.02147E-07
 -1      1059 1.84348E-08 3.93630E-07-9.17386E-08
 -1      1060-2.08356E-08 1.98995E-07 5.22217E-08
 -1      1061 2.22782E-07 6.32210E-07 1.36452E-07
 -1      1062-2.31587E-07 2.57536E-07 1.24044E-07
 -1      1063-3.86305E-07 1.87842E-06 5.27921E-07
 -1      1064-9.06817E-08 7.86458E-08-1.67740E-08
 -1      1065-3.21331E-08 6.63952E-08-3.52547E-08
 -1      1066-2.34146E-08-2.50010E-08-8.86639E-09
 -1      1067-1.48751E-08-1.54062E-08-1.91780E-08
 -1      1068-3.38672E-08-2.81949E-10-1.02639E-08
 -1      1069-1.05385E-08 2.92826E-08 7.25068E-09
 -1      1070-1.41017E-03 5.87691E-02 4.61948E-05
 -1      1071-1.80072E-03 5.92478E-02 3.02726E-04
 -1      1072-2.49700E-03 5.92199E-02 2.87182E-04
 -1      1073-1.01451E-03 5.85259E-02 7.90973E-05
 -1      1074-1.05768E-03 5.86628E-02 6.22993E-05
 -1      1075-2.11542E-03 5.82954E-02 1.17483E-04
 -1      1076-1.41614E-03 5.83814E-02 1.03342E-04
 -1      1077-3.25795E-03 5.91639E-02 2.71718E-04
 -1      1078-3.91680E-03 5.90922E-02 2.56979E-04
 -1      1079-3.14068E-03 5.82880E-02 1.34989E-04
 -1      1080-4.59196E-03 5.89882E-02 2.37598E-04
 -1      1081-5.19373E-03 5.88428E-02 2.11647E-04
 -1      1082-4.28611E-03 5.83788E-02 1.46600E-04
 -1      1083-5.41795E-03 5.86847E-02 1.81735E-04
 -1      1084-5.09195E-03 5.85130E-02 1.61891E-04
 -1      1085-1.08731E-03 5.86365E-02 2.92888E-04
 -1      1086-4.28757E-05-1.69893E-05-1.11637E-05
 -1      1087-1.05927E-03 5.79956E-02 2.75958E-04
 -1      1088-9.12965E-04 5.60498E-02 2.30888E-04
 -1      1089-9.95678E-04 5.70768E-02 2.51617E-04
 -1      1090 4.20162E-04 4.09398E-02 7.38348E-05
 -1      1091 1.69917E-04 4.39578E-02 9.34517E-05
 -1      1092 9.04562E-04 3.48044E-02 4.47977E-05
 -1      1093 6.50409E-04 3.80384E-02 6.45195E-05
 -1      1094 1.23953E-03 2.92521E-02 2.20710E-05
 -1      1095 1.06282E-03 3.24607E-02 2.60734E-05
 -1      1096 1.31514E-03 2.40113E-02 1.84431E-05
 -1      1097 1.31630E-03 2.67697E-02-2.28566E-05
 -1      1098 1.07961E-03 1.78975E-02-3.23654E-05
 -1      1099 1.23440E-03 2.10143E-02-2.31440E-05
 -1      1100 7.12803E-04 1.20172E-02-3.83718E-05
 -1      1101 8.95782E-04 1.49746E-02-4.02665E-05
 -1      1102 3.63546E-04 6.36556E-03-2.32851E-05
 -1      1103 5.37816E-04 9.11516E-03-3.16367E-05
 -1      1104-7.62213E-05 3.44422E-04 4.75640E-06
 -1      1105-4.18717E-05 8.70060E-04 1.42946E-05
 -1      1106-7.00301E-05-3.99535E-06-1.03555E-05
 -1      1107-8.56487E-05 7.06015E-05-3.06587E-06
 -1      1108 5.00924E-05 1.97841E-03 6.09423E-06
 -1      1109-4.93959E-05 4.65505E-02 1.14396E-04
 -1      1110 1.81623E-04 3.72235E-03-5.79674E-06
 -1      1111-7.57296E-04 5.43958E-02 2.11370E-04
 -1      1112-5.76736E-04 5.24678E-02 1.86517E-04
 -1      1113-3.43866E-04 4.98616E-02 1.50526E-04
 -1      1114-1.00000E+01 2.61354E-02-1.17784E-03
 -1      1115-1.00000E+01 2.62297E-02-1.15319E-03
 -1      1116-1.00000E+01 2.63216E-02-1.19272E-03
 -1      1117-1.00000E+01 2.62321E-02-1.24361E-03
 -1      1118-1.00000E+01 2.62178E-02-1.30389E-03
 -1      1119-2.56938E-02 3.68911E-02-1.69568E-03
 -1      1120-3.10124E-01 6.67046E-02-2.95973E-03
 -1      1121-1.39951E-01 5.31790E-02-2.11697E-03
 -1      1122-1.07077E+00 9.84103E-02-2.68843E-03
 -1      1123-6.36960E-01 8.26391E-02-3.05682E-03
 -1      1124-5.09194E-01 7.65718E-02-5.19825E-04
 -1      1125-3.20996E+00 1.40109E-01 2.14103E-04
 -1      1126-2.16432E+00 1.22430E-01 8.52442E-06
 -1      1127-4.44603E+00 1.52247E-01 5.25330E-04
 -1      1128-7.74557E+00 1.72630E-01-9.59626E-04
 -1      1129-6.72805E+00 1.68453E-01-6.26179E-04
 -1      1130-9.53745E+00 1.77582E-01-1.80499E-03
 -1      1131-2.63572E-02 3.68514E-02 1.49640E-03
 -1      1132-1.42633E-01 5.32419E-02 1.49717E-03
 -1      1133-3.15574E-01 6.68194E-02 2.23719E-03
 -1      1134-6.43764E-01 8.27174E-02 2.12258E-03
 -1      1135-1.08861E+00 9.84584E-02 1.94612E-03
 -1      1136-9.53074E+00 1.77172E-01-4.75675E-04
 -1      1137-6.63260E-02 4.45368E-02-1.39550E-04
 -1      1138-9.39769E+00 1.76427E-01-1.17885E-03
 -1      1139-9.39684E+00 1.76592E-01-1.41112E-03
 -1      1140-6.62562E-02 4.45355E-02-2.92563E-04
 -1      1141-8.93710E+00 1.76252E-01-2.07638E-03
 -1      1142-8.93065E+00 1.76271E-01-2.29473E-04
 -1      1143-5.71943E+00 1.64038E-01-2.42788E-04
 -1      1144-8.27320E+00 1.74555E-01-2.38201E-03
 -1      1145-8.25848E+00 1.74625E-01 2.24724E-04
 -1      1146-1.28441E+00 1.04207E-01-1.58892E-04
 -1      1147-2.63498E-02 1.53889E-02-1.76473E-03
 -1      1148-3.17034E-01-1.46243E-02-3.00793E-03
 -1      1149-1.43558E-01-9.99767E-04-2.17698E-03
 -1      1150-1.10341E+00-4.66428E-02-3.02500E-03
 -1      1151-6.54944E-01-3.09169E-02-3.13528E-03
 -1      1152-5.24372E-01-2.48006E-02-5.94081E-04
 -1      1153-3.20996E+00-8.76737E-02-1.59435E-03
 -1      1154-2.14992E+00-6.96879E-02-1.13829E-03
 -1      1155-5.71942E+00-1.11610E-01-1.52071E-03
 -1      1156-4.44604E+00-9.98060E-02-2.08948E-03
 -1      1157-6.72805E+00-1.16038E-01-1.26037E-03
 -1      1158-8.72588E+00-1.23648E-01-2.38274E-03
 -1      1159-8.05545E+00-1.21691E-01-2.83702E-03
 -1      1160-9.53071E+00-1.24940E-01-1.93650E-03
 -1      1161-2.56796E-02 1.56706E-02 1.44967E-03
 -1      1162-1.43059E-01-9.09279E-04 1.54346E-03
 -1      1163-3.14746E-01-1.43686E-02 2.22693E-03
 -1      1164-6.51239E-01-3.05822E-02 2.01528E-03
 -1      1165-1.08837E+00-4.62865E-02 1.58099E-03
 -1      1166-8.08106E+00-1.21207E-01 7.88802E-04
 -1      1167-8.74325E+00-1.23487E-01 2.05531E-04
 -1      1168-9.53744E+00-1.24973E-01-5.41212E-04
 -1      1169-6.77123E-02 7.74213E-03-4.40670E-05
 -1      1170-6.76979E-02 7.80438E-03-2.83414E-04
 -1      1171-9.19388E+00-1.24127E-01-1.58177E-03
 -1      1172-9.20404E+00-1.23996E-01-6.23800E-04
 -1      1173-7.74555E+00-1.20128E-01-1.07626E-03
 -1      1174-9.20542E+00-1.23785E-01-9.82271E-04
 -1      1175-1.28442E+00-5.17389E-02-6.86369E-04
 -1      1176-8.40619E+00-1.22440E-01-1.04886E-03
 -1      1177-8.07127E+00-1.21517E-01-1.92374E-03
 -1      1178-9.52855E+00 2.61339E-02-1.19824E-03
 -1      1179-9.05925E+00 2.61111E-02-1.16777E-03
 -1      1180-2.05073E-02 2.60586E-02-1.14350E-04
 -1      1181-8.38364E+00 2.60772E-02-1.04699E-03
 -1      1182-7.03013E-02 2.61198E-02-1.27349E-04
 -1      1183-7.71616E+00 2.61127E-02-1.02480E-03
 -1      1184-1.12403E-01 3.84106E-02 1.91189E-03
 -1      1185-1.12419E-01 1.37572E-02-2.24875E-03
 -1      1186-7.32053E+00-4.65049E-02-2.43924E-03
 -1      1187-7.32052E+00 9.86812E-02 4.69273E-04
 -1      1188-4.09443E-01 2.60848E-02-2.18957E-04
 -1      1189-2.04796E-01 2.60729E-02-1.80581E-04
 -1      1190-5.45788E-01 5.26429E-02 2.30487E-03
 -1      1191-5.45795E-01-5.63733E-04-2.98346E-03
 -1      1192-1.27832E+00 2.60650E-02-4.10581E-04
 -1      1193-7.89324E-01 2.61428E-02-3.77445E-04
 -1      1194-1.63353E+00 6.90303E-02 2.00207E-03
 -1      1195-1.63354E+00-1.69850E-02-3.00311E-03
 -1      1196-6.67489E+00 2.60985E-02-9.46995E-04
 -1      1197-5.66398E+00 2.61244E-02-8.94375E-04
 -1      1198-2.73087E-01 6.87662E-03-2.66614E-03
 -1      1199-5.07675E+00-4.03634E-02-2.76561E-03
 -1      1200-5.07674E+00 9.25439E-02 1.14023E-03
 -1      1201-3.22396E+00 2.61463E-02-6.96149E-04
 -1      1202-2.15969E+00 2.60821E-02-5.74339E-04
 -1      1203-4.38596E+00 2.61276E-02-7.67049E-04
 -1      1204-9.68533E-01-8.28625E-03-2.93150E-03
 -1      1205-6.29072E+00-4.43356E-02-2.56546E-03
 -1      1206-2.59318E+00-2.58694E-02-3.23319E-03
 -1      1207-3.85077E+00-3.42882E-02-3.13507E-03
 -1      1208-2.40141E-03 5.72761E-02 2.54056E-04
 -1      1209-2.49549E-03 5.59892E-02 2.28833E-04
 -1      1210-2.62672E-03 5.44481E-02 1.98967E-04
 -1      1211-2.85825E-03 5.17589E-02 1.54080E-04
 -1      1212-3.09529E-03 4.90485E-02 1.10889E-04
 -1      1213-3.34719E-03 4.60945E-02 8.78055E-05
 -1      1214-3.58103E-03 4.33120E-02 5.65245E-05
 -1      1215-3.81466E-03 4.04327E-02 3.69905E-05
 -1      1216-4.00970E-03 3.79732E-02 3.01187E-06
 -1      1217-4.17948E-03 3.57653E-02-4.30972E-07
 -1      1218-4.31306E-03 3.36817E-02-2.99330E-06
 -1      1219-4.81723E-03 2.93666E-02-3.07086E-04
 -1      1220-4.80286E-03 2.94415E-02 3.73073E-05
 -1      1221-4.75186E-03 3.08332E-02-1.13190E-04
 -1      1222-4.83179E-03 3.06151E-02 5.96614E-05
 -1      1223-4.42348E-03 3.10691E-02 6.04595E-05
 -1      1224-4.44569E-03 3.12521E-02-2.15742E-04
 -1      1225-4.37345E-03 3.22400E-02 1.99839E-05
 -1      1226-4.35845E-03 3.22534E-02-4.01707E-05
 -1      1227-9.53531E+00 2.63679E-02-1.17709E-03
 -1      1228-9.07302E+00 2.63848E-02-1.15006E-03
 -1      1229-1.95245E-02 2.63041E-02-1.01417E-04
 -1      1230-8.40527E+00 2.64453E-02-1.05769E-03
 -1      1231-6.78998E-02 2.62680E-02-1.30227E-04
 -1      1232-7.74673E+00 2.63207E-02-1.00340E-03
 -1      1233-1.09639E-01 1.41012E-02 1.90595E-03
 -1      1234-1.09656E-01 3.85663E-02-2.21574E-03
 -1      1235-7.35276E+00 9.86203E-02-2.24043E-03
 -1      1236-7.35276E+00-4.60122E-02 2.96240E-04
 -1      1237-4.00649E-01 2.63702E-02-2.21569E-04
 -1      1238-1.99806E-01 2.63786E-02-1.55446E-04
 -1      1239-5.35954E-01-7.86612E-05 2.24377E-03
 -1      1240-5.35963E-01 5.28305E-02-2.90106E-03
 -1      1241-1.24456E+00 2.63356E-02-4.15533E-04
 -1      1242-7.69218E-01 2.62999E-02-3.78064E-04
 -1      1243-1.59858E+00-1.64707E-02 1.61670E-03
 -1      1244-1.59859E+00 6.92133E-02-2.58875E-03
 -1      1245-6.73130E+00 2.62668E-02-9.56902E-04
 -1      1246-5.74539E+00 2.63486E-02-8.91309E-04
 -1      1247-2.67529E-01 4.54262E-02-2.61843E-03
 -1      1248-5.15979E+00 9.26786E-02-2.15497E-03
 -1      1249-5.15979E+00-4.00261E-02 4.74954E-04
 -1      1250-3.15062E+00 2.63413E-02-6.75538E-04
 -1      1251-2.10879E+00 2.63647E-02-5.53229E-04
 -1      1252-3.85259E+00-3.41116E-02 9.31121E-04
 -1      1253-3.85261E+00 8.67639E-02-2.40675E-03
 -1      1254-9.47396E-01 6.05818E-02-2.74162E-03
 -1      1255-6.34870E+00 9.64162E-02-2.14677E-03
 -1      1256-2.53997E+00 7.81245E-02-2.51784E-03
 -1      1257-4.77840E-03 2.31815E-02-8.84573E-05
 -1      1258-4.27359E-03 2.08199E-02 1.25113E-06
 -1      1259-4.16389E-03 1.92728E-02-3.48310E-05
 -1      1260-3.72791E-03 1.58477E-02 8.05635E-06
 -1      1261-3.35927E-03 1.29923E-02-5.25385E-06
 -1      1262-1.17198E-03 1.42306E-03-8.33770E-06
 -1      1263-8.41869E-04 6.24411E-04-1.61523E-06
 -1      1264-5.39829E-04 1.30396E-04 3.46400E-06
 -1      1265-3.49272E-04-2.68658E-05 5.25060E-06
 -1      1266-2.19707E-03 5.60432E-03-1.67097E-05
 -1      1267-2.55878E-03 7.62721E-03-1.45087E-05
 -1      1268-3.05690E-03 1.08521E-02-1.03424E-05
 -1      1269-4.03116E-03 1.85449E-02 4.92899E-06
 -1      1270-4.15057E-03 1.97167E-02-3.33033E-05
 -1      1271-4.32635E-03 2.07034E-02-1.02817E-04
 -1      1272-4.89179E-03 2.34116E-02-1.86079E-05
 -1      1273-4.45663E-03 2.13924E-02-2.55741E-05
 -1      1274-4.46431E-03 2.12873E-02-6.53038E-05
 -1      1275-1.63119E-03 2.98531E-03-1.13490E-05
 -1      1276-3.95466E-03 1.76983E-02-1.65845E-05
 -1      1277-8.54816E-04 5.85673E-02 6.40627E-05
 -1      1278-1.07892E-03 5.87584E-02 7.26961E-05
 -1      1279-1.55590E-03 5.89155E-02 8.72608E-05
 -1      1280-4.40107E-03 5.83416E-02 2.32335E-04
 -1      1281-3.66866E-03 5.82423E-02 2.46704E-04
 -1      1282-2.95264E-03 5.81756E-02 2.57388E-04
 -1      1283-2.32487E-03 5.90033E-02 9.60036E-05
 -1      1284-5.08568E-03 5.84908E-02 2.10734E-04
 -1      1285-3.31396E-03 5.90109E-02 1.04767E-04
 -1      1286-5.39936E-03 5.86433E-02 1.83779E-04
 -1      1287-5.18728E-03 5.88133E-02 1.46363E-04
 -1      1288-4.47013E-03 5.89383E-02 1.17852E-04
 -1      1289 2.90145E-04 5.05414E-04 2.16109E-06
 -1      1290 4.75489E-04 1.25339E-03 4.69856E-06
 -1      1291 7.07664E-04 2.73310E-03-3.07384E-07
 -1      1292 8.88294E-04 4.64063E-03-8.37653E-06
 -1      1293 9.83340E-06 5.37264E-02 7.88933E-05
 -1      1294-3.36091E-04 5.60629E-02 6.95802E-05
 -1      1295-6.44268E-04 5.75003E-02 6.04721E-05
 -1      1296 1.04916E-03 7.78884E-03-1.84272E-05
 -1      1297 1.12539E-03 1.18239E-02-2.68280E-05
 -1      1298 3.36163E-04 5.03350E-02 8.49477E-05
 -1      1299 6.07757E-04 4.56550E-02 8.42250E-05
 -1      1300 7.85309E-04 4.07012E-02 7.13880E-05
 -1      1301 1.12815E-03 1.86986E-02-2.05730E-05
 -1      1302 1.06400E-03 2.56399E-02 3.64097E-06
 -1      1303 9.54281E-04 3.28642E-02 3.83423E-05
 -1      1304-9.15422E-05-3.82458E-05 4.62019E-07
 -1      1305-3.22261E-05-2.30646E-05 3.19570E-06
 -1      1306-9.03059E-06-9.95521E-06 1.95789E-06
 -1      1307-1.21733E-06 1.68883E-05-5.54340E-06
 -1      1308 2.87654E-05 3.04573E-05-5.00904E-06
 -1      1309 8.61602E-05 6.34515E-05-2.61332E-06
 -1      1310-4.28105E-06 9.96847E-06-3.33220E-06
 -1      1311-5.41887E-06-2.76297E-06 4.90669E-07
 -1      1312-2.41215E-06 4.37259E-06-2.22743E-06
 -1      1313-5.75277E-06-8.40105E-07 1.57202E-07
 -1      1314-4.50848E-06-4.70653E-08-3.52436E-07
 -1      1315-3.48151E-06 1.32604E-06-1.17148E-06
 -1      1316-1.61171E-04 7.16372E-05-3.38205E-06
 -1      1317-1.92718E-03 5.85946E-02 4.25337E-05
 -1      1318-4.27452E-04 2.42736E-04 1.00830E-06
 -1      1319-8.01768E-04 7.87931E-04-3.07277E-06
 -1      1320-1.10437E-03 1.58555E-03-2.98972E-07
 -1      1321-1.46783E-03 3.06933E-03 8.87354E-06
 -1      1322-2.95566E-03 5.16250E-02 4.08056E-05
 -1      1323-2.73782E-03 5.42852E-02 3.70194E-05
 -1      1324-2.49171E-03 5.62838E-02 3.92847E-05
 -1      1325-2.25389E-03 5.74706E-02 3.74807E-05
 -1      1326-2.03872E-03 5.81836E-02 3.67751E-05
 -1      1327-1.87592E-03 5.65926E-03 1.21378E-05
 -1      1328-2.22100E-03 9.10917E-03 2.30081E-05
 -1      1329-3.11069E-03 4.74569E-02 3.66372E-05
 -1      1330-3.18983E-03 4.25739E-02 3.25476E-05
 -1      1331-2.51770E-03 1.38380E-02 1.98547E-05
 -1      1332-2.79572E-03 2.10232E-02 3.17439E-05
 -1      1333-2.99870E-03 2.82083E-02 2.95838E-05
 -1      1334-3.12687E-03 3.56524E-02 3.38089E-05
 -1      1335-1.66386E-03 5.87888E-02 3.11706E-04
 -1      1336-1.62850E-03 5.81511E-02 2.99959E-04
 -1      1337-1.61530E-03 5.72725E-02 2.78964E-04
 -1      1338-1.46069E-03 4.48503E-02 1.87076E-04
 -1      1339-1.43374E-03 4.19001E-02 1.96957E-04
 -1      1340-1.41017E-03 3.95653E-02 2.06151E-04
 -1      1341-1.39266E-03 3.65000E-02 2.56497E-04
 -1      1342-1.38948E-03 3.43783E-02 2.98624E-04
 -1      1343-1.41937E-03 3.20110E-02 4.87234E-04
 -1      1344-1.22137E-03 1.87677E-02-2.92811E-04
 -1      1345-1.14089E-03 1.56480E-02-2.39103E-04
 -1      1346-1.05559E-03 1.27930E-02-2.13661E-04
 -1      1347-9.63620E-04 9.69968E-03-1.95885E-04
 -1      1348-5.55030E-04 1.84568E-03-1.34373E-04
 -1      1349-4.22012E-04 7.46492E-04-1.18620E-04
 -1      1350-3.07530E-04 2.24619E-04-1.05996E-04
 -1      1351-2.08528E-04-1.62389E-05-8.71826E-05
 -1      1352-5.92619E-05-3.15145E-05-3.44906E-05
 -1      1353-1.43652E-03 5.86155E-02-2.10427E-05
 -1      1354-9.91569E-04 5.85671E-02-9.64796E-06
 -1      1355-4.95046E-03 5.86970E-02 2.17250E-04
 -1      1356-4.39984E-03 5.87085E-02 2.38434E-04
 -1      1357-3.65586E-03 5.87208E-02 2.57991E-04
 -1      1358-2.96116E-03 5.87281E-02 2.72088E-04
 -1      1359-1.60185E-03 5.63221E-02 2.65681E-04
 -1      1360-8.98317E-04 5.85512E-02 2.29955E-05
 -1      1361-3.40763E-05 4.32833E-06-1.84251E-05
 -1      1362-7.07958E-06-7.81811E-07-6.81217E-06
 -1      1363-1.04089E-06-2.98957E-06-2.88413E-06
 -1      1364-1.76198E-06-1.60652E-06-2.21187E-06
 -1      1365-2.17514E-06 4.53619E-06-4.63570E-07
 -1      1366-2.55588E-06 1.14623E-05 5.63371E-07
 -1      1367 5.96939E-06 2.30299E-05 5.25778E-06
 -1      1368 3.71225E-05 3.66995E-05 1.62911E-05
 -1      1369 5.32964E-05 2.80012E-05 1.65430E-05
 -1      1370-4.47176E-05-2.42669E-06-9.45453E-06
 -1      1371-1.24490E-04 1.06433E-04-1.09833E-05
 -1      1372-2.08698E-04 5.00619E-04 4.21802E-07
 -1      1373-2.79300E-04 1.40270E-03-3.14088E-06
 -1      1374-3.63569E-04 2.92635E-03-3.80258E-06
 -1      1375-4.58308E-04 5.52639E-03-8.76431E-06
 -1      1376-1.40993E-03 5.44718E-02 2.59600E-05
 -1      1377-1.44457E-03 5.64623E-02 2.10582E-05
 -1      1378-1.47045E-03 5.83482E-02-4.88322E-06
 -1      1379-1.21196E-03 5.85663E-02 5.98191E-05
 -1      1380-1.48981E-03 4.74452E-02 1.92943E-04
 -1      1381-3.38157E-03 2.77064E-02 3.86021E-04
 -1      1382-3.44380E-03 2.92503E-02 4.60807E-04
 -1      1383-3.46605E-03 2.31024E-02-5.52818E-04
 -1      1384-3.32497E-03 2.44367E-02-4.13819E-04
 -1      1385-8.47677E-04 6.69949E-03-1.79598E-04
 -1      1386-1.60479E-06 1.95951E-06-7.39822E-07
 -1      1387-1.36528E-03 5.17438E-02 3.39458E-05
 -1      1388-1.46749E-03 5.76479E-02 1.07916E-05
 -1      1389-1.77852E-03 5.85888E-02 7.76937E-05
 -1      1390-2.84610E-03 5.85954E-02 9.81185E-05
 -1      1391-2.35158E-03 5.87368E-02 2.93684E-04
 -1      1392-1.58104E-03 5.48120E-02 2.43028E-04
 -1      1393-1.52410E-03 5.06179E-02 2.04437E-04
 -1      1394-7.11570E-04 3.91057E-03-1.57374E-04
 -1      1395-2.21859E-04 2.95696E-02 4.28944E-04
 -1      1396-5.20343E-05 2.66567E-02 1.45705E-04
 -1      1397-1.34440E-04-6.04864E-05-4.69589E-05
 -1      1398-8.29354E-05-7.35868E-06-3.75974E-05
 -1      1399-1.55394E-03 5.30573E-02 2.22885E-04
 -1      1400-2.08455E-06-5.54402E-07-1.82837E-06
 -1      1401-1.30679E-03 4.75766E-02 3.53383E-05
 -1      1402-5.76710E-04 9.27508E-03-1.31489E-05
 -1      1403-6.93729E-04 1.40266E-02-1.46495E-05
 -1      1404-3.78169E-03 5.86179E-02 1.14617E-04
 -1      1405-2.82384E-03 1.95008E-02-2.87921E-04
 -1      1406-3.01063E-03 2.14512E-02-4.98517E-04
 -1      1407-1.22555E-03 4.26429E-02 3.49325E-05
 -1      1408-1.92956E-06 6.44688E-07-1.31710E-06
 -1      1409-1.89564E-03 2.20274E-02-5.84309E-04
 -1      1410-3.49319E-03 3.08937E-02 4.16832E-04
 -1      1411-6.31642E-05 2.45855E-02-1.00085E-04
 -1      1412-1.94976E-04 2.13227E-02-3.16922E-04
 -1      1413-2.10286E-03 2.61095E-02 2.82703E-05
 -1      1414-4.80347E-03 5.86426E-02 1.33611E-04
 -1      1415-5.35453E-03 5.86630E-02 1.55740E-04
 -1      1416-5.37936E-03 5.86808E-02 1.87484E-04
 -1      1417-2.16069E-06-1.54417E-07-1.54603E-06
 -1      1418-3.37765E-03 2.55879E-02-1.76114E-04
 -1      1419-3.32691E-03 2.63941E-02 9.91188E-05
 -1      1420 1.51759E-04 1.97307E-02-2.57331E-04
 -1      1421-8.35122E-04 2.07554E-02-7.33743E-06
 -1      1422-9.69497E-04 2.79098E-02 7.86936E-06
 -1      1423-1.11574E-03 3.57349E-02 2.17688E-05
 -1      1424-2.35941E-03 2.49000E-02-2.82871E-04
 -1      1425-2.35626E-03 2.72800E-02 3.26281E-04
 -1      1426-1.65706E-03 5.80222E-02 2.48613E-04
 -1      1427-1.67204E-03 5.87659E-02 2.74210E-04
 -1      1428-1.62678E-03 5.57103E-02 1.85219E-04
 -1      1429-1.64064E-03 5.68431E-02 2.11903E-04
 -1      1430-1.52767E-03 4.80638E-02 3.12760E-05
 -1      1431-1.57098E-03 5.10386E-02 8.53794E-05
 -1      1432-1.46844E-03 4.21622E-02-6.93758E-05
 -1      1433-1.50004E-03 4.49203E-02-2.53586E-05
 -1      1434-1.42283E-03 3.62035E-02-2.07803E-04
 -1      1435-1.44532E-03 3.91019E-02-1.29176E-04
 -1      1436-1.05347E-03 1.28482E-02 1.58819E-04
 -1      1437-1.13518E-03 1.56373E-02 1.91561E-04
 -1      1438-4.17840E-04 7.51321E-04 1.18100E-04
 -1      1439-5.24899E-04 1.61305E-03 1.22867E-04
 -1      1440-2.23218E-04 1.42829E-05 8.83637E-05
 -1      1441-3.04011E-04 2.19123E-04 1.03798E-04
 -1      1442-7.06241E-05-3.53536E-05 4.22162E-05
 -1      1443-1.48736E-04-5.91746E-05 6.52396E-05
 -1      1444-9.88332E-04 5.85832E-02 1.08362E-04
 -1      1445-1.44327E-03 5.86396E-02 1.02365E-04
 -1      1446-1.14961E-03 5.85893E-02 1.17909E-04
 -1      1447-9.05676E-04 5.85690E-02 1.14087E-04
 -1      1448-2.56101E-03 5.85981E-02 1.33803E-04
 -1      1449-1.81496E-03 5.85964E-02 1.26645E-04
 -1      1450-3.25694E-03 5.87456E-02 2.62828E-04
 -1      1451-3.95462E-03 5.87366E-02 2.51296E-04
 -1      1452-2.46119E-03 5.87553E-02 2.72402E-04
 -1      1453-7.69548E-05-2.80825E-06 2.85945E-05
 -1      1454-5.14797E-06-2.10442E-08 7.26993E-06
 -1      1455-2.67676E-05 3.33585E-06 1.37215E-05
 -1      1456-1.06697E-06 1.11825E-05-3.75698E-06
 -1      1457-1.53347E-06 4.46368E-06-1.34192E-06
 -1      1458 3.96770E-05 3.05473E-05-1.71907E-05
 -1      1459 9.03996E-06 2.16054E-05-1.00544E-05
 -1      1460-6.67386E-05 1.48723E-05 1.73125E-05
 -1      1461 6.13833E-05 1.63434E-05-1.26543E-05
 -1      1462-1.52975E-04 1.65799E-04 1.44055E-05
 -1      1463-2.76355E-04 1.30978E-03 8.39416E-07
 -1      1464-2.18350E-04 5.60107E-04 5.61402E-07
 -1      1465-4.27008E-04 4.69326E-03 9.44252E-06
 -1      1466-3.58312E-04 2.82727E-03 7.17340E-06
 -1      1467-1.46736E-03 5.72982E-02 9.56235E-05
 -1      1468-1.43815E-03 5.59848E-02 8.71903E-05
 -1      1469-1.47544E-03 5.82691E-02 1.10407E-04
 -1      1470-8.84783E-04 7.68141E-03 1.33028E-04
 -1      1471-7.94669E-04 5.65388E-03 1.26301E-04
 -1      1472-9.89472E-04 1.07130E-02 1.45933E-04
 -1      1473-2.82402E-03 1.93283E-02 2.46167E-04
 -1      1474-2.68192E-03 1.79292E-02 1.85824E-04
 -1      1475-2.94829E-03 2.18578E-02 4.18522E-04
 -1      1476-2.88884E-03 2.04999E-02 3.37216E-04
 -1      1477-1.43788E-03 1.97891E-02 3.27439E-04
 -1      1478-2.79250E-03 2.41892E-02 3.13903E-04
 -1      1479-2.93535E-03 2.29460E-02 4.53678E-04
 -1      1480-1.42979E-03 2.21330E-02 4.88602E-04
 -1      1481-3.52953E-03 2.96006E-02-4.46124E-04
 -1      1482-3.46444E-03 2.78871E-02-4.48340E-04
 -1      1483-3.01326E-03 3.27344E-02-2.53648E-04
 -1      1484-3.12873E-03 3.10916E-02-3.69511E-04
 -1      1485-1.42066E-03 3.37820E-02-2.85293E-04
 -1      1486-6.61319E-04 3.25130E-03 1.25510E-04
 -1      1487-1.59711E-03 5.38812E-02 1.47328E-04
 -1      1488-1.19136E-03 1.74861E-02 2.06740E-04
 -1      1489 1.67170E-04 1.93642E-02 1.74200E-04
 -1      1490 2.68900E-04 2.19937E-02 2.64242E-04
 -1      1491-8.97509E-08-1.68032E-06 3.32614E-06
 -1      1492-1.27974E-06-1.03361E-06 2.27696E-06
 -1      1493-1.38728E-03 5.36851E-02 9.08394E-05
 -1      1494-6.35101E-04 1.16055E-02 1.13627E-05
 -1      1495-5.32240E-04 7.85163E-03 1.25292E-05
 -1      1496-1.34492E-03 5.02689E-02 8.89721E-05
 -1      1497-2.04256E-03 3.03663E-02-4.96570E-04
 -1      1498 1.47457E-04 3.04950E-02-2.88834E-04
 -1      1499-5.58176E-06 3.29368E-02-2.19073E-04
 -1      1500 1.41680E-04 2.44028E-02 1.89107E-04
 -1      1501 1.15577E-04 2.74725E-02-1.84316E-04
 -1      1502-4.83934E-03 5.87198E-02 2.30341E-04
 -1      1503-5.31129E-03 5.87058E-02 2.06848E-04
 -1      1504-1.58657E-06 1.63531E-06-5.62466E-08
 -1      1505-1.27210E-03 4.56172E-02 8.05692E-05
 -1      1506-1.19937E-03 4.06407E-02 7.25331E-05
 -1      1507-2.00910E-03 2.73327E-02-4.00870E-04
 -1      1508-2.98268E-03 2.64871E-02-2.77556E-04
 -1      1509 3.38965E-04 2.31778E-02 2.69201E-04
 -1      1510-1.69163E-04 2.86629E-02-3.29142E-04
 -1      1511 1.24569E-04 1.81644E-02 1.33379E-04
 -1      1512-1.58675E-06 3.63197E-07 7.97844E-07
 -1      1513-3.79734E-03 5.86216E-02 1.45796E-04
 -1      1514-5.37195E-03 5.86836E-02 1.76165E-04
 -1      1515-4.80286E-03 5.86591E-02 1.52661E-04
 -1      1516-1.92274E-06-2.28387E-07 1.49748E-06
 -1      1517-9.45122E-04 2.59170E-02 3.34564E-05
 -1      1518-7.92687E-04 1.84723E-02 1.85170E-05
 -1      1519-1.07662E-03 3.31731E-02 5.02064E-05
 -1      1520-1.45311E-03 2.45535E-02 2.53139E-04
 -1      1521-2.73019E-03 2.47106E-02 2.07090E-04
 -1      1522 0.00000E+00 0.00000E+00 0.00000E+00
 -1      1523 0.00000E+00 0.00000E+00 0.00000E+00
 -1      1524 0.00000E+00 0.00000E+00 0.00000E+00
 -1      1525 0.00000E+00 0.00000E+00 0.00000E+00
 -1      1526 0.00000E+00 0.00000E+00 0.00000E+00
 -1      1527 0.00000E+00 0.00000E+00 0.00000E+00
 -1      1528 0.00000E+00 0.00000E+00 0.00000E+00
 -1      1529 0.00000E+00 0.00000E+00 0.00000E+00
 -1      1530 0.00000E+00 0.00000E+00 0.00000E+00
 -1      1531 0.00000E+00 0.00000E+00 0.00000E+00
 -1      1532 0.00000E+00 0.00000E+00 0.00000E+00
 -1      1533 0.00000E+00 0.00000E+00 0.00000E+00
 -1      1534 0.00000E+00 0.00000E+00 0.00000E+00
 -1      1535 0.00000E+00 0.00000E+00 0.00000E+00
 -1      1536 0.00000E+00 0.00000E+00 0.00000E+00
 -1      1537-1.46740E-03 5.88554E-02 4.63029E-05
 -1      1538-1.66339E-03 5.93866E-02 3.08863E-04
 -1      1539-2.43970E-03 5.93551E-02 2.91357E-04
 -1      1540-1.10105E-03 5.87264E-02 5.93283E-05
 -1      1541-1.00930E-03 5.85276E-02 7.75362E-05
 -1      1542-1.36419E-03 5.83171E-02 1.06182E-04
 -1      1543-2.03381E-03 5.82111E-02 1.20779E-04
 -1      1544-3.91108E-03 5.91862E-02 2.59016E-04
 -1      1545-3.20874E-03 5.92823E-02 2.75697E-04
 -1      1546-3.07670E-03 5.81953E-02 1.38682E-04
 -1      1547-4.60458E-03 5.90534E-02 2.38749E-04
 -1      1548-5.20059E-03 5.88715E-02 2.11263E-04
 -1      1549-4.19791E-03 5.82990E-02 1.49673E-04
 -1      1550-5.41340E-03 5.86767E-02 1.80528E-04
 -1      1551-5.05344E-03 5.84636E-02 1.62829E-04
 -1      1552-9.60479E-04 5.87733E-02 2.97171E-04
 -1      1553-3.80118E-05-1.83876E-05-3.09987E-06
 -1      1554-9.25736E-04 5.80064E-02 2.78616E-04
 -1      1555-8.48530E-04 5.71089E-02 2.53152E-04
 -1      1556-7.40171E-04 5.60066E-02 2.32874E-04
 -1      1557-5.58487E-04 5.44261E-02 2.10115E-04
 -1      1558-3.25477E-04 5.23397E-02 1.84917E-04
 -1      1559-1.69522E-05 4.95530E-02 1.41454E-04
 -1      1560 3.33994E-04 4.62529E-02 1.11738E-04
 -1      1561 6.22173E-04 4.35024E-02 8.40604E-05
 -1      1562 9.19496E-04 4.05345E-02 7.15361E-05
 -1      1563 1.21284E-03 3.75519E-02 4.68979E-05
 -1      1564 1.49899E-03 3.44668E-02 3.96579E-05
 -1      1565 1.72113E-03 3.19993E-02 8.18121E-06
 -1      1566 1.93055E-03 2.94041E-02 6.07397E-06
 -1      1567 2.05532E-03 2.68447E-02 1.37522E-05
 -1      1568 2.05423E-03 2.42200E-02-6.42825E-06
 -1      1569 1.89032E-03 2.11820E-02-2.82314E-05
 -1      1570 1.68976E-03 1.86739E-02-4.23451E-05
 -1      1571 1.43435E-03 1.55877E-02-4.89708E-05
 -1      1572 1.20511E-03 1.27941E-02-3.88757E-05
 -1      1573 9.49447E-04 9.70676E-03-3.66948E-05
 -1      1574 7.01574E-04 6.87740E-03-2.55564E-05
 -1      1575 6.15111E-05 9.74718E-04 1.28512E-05
 -1      1576-2.08932E-05 3.68160E-04 8.04116E-06
 -1      1577-5.56318E-05 1.16776E-04 4.61479E-07
 -1      1578-6.74329E-05-1.92243E-06-1.06161E-05
 -1      1579 2.16136E-04 2.15817E-03 6.20464E-06
 -1      1580 4.29902E-04 4.07449E-03-9.72391E-06
 -1      1581-2.28505E-03 5.82059E-02 2.73559E-04
 -1      1582-2.29960E-03 5.82058E-02 2.58170E-04
 -1      1583-2.30551E-03 5.73720E-02 2.70386E-04
 -1      1584-2.32281E-03 5.73983E-02 2.55975E-04
 -1      1585-1.88032E-03 5.88467E-02 3.62684E-05
 -1      1586-1.87359E-03 5.86084E-02 6.53533E-05
 -1      1587-1.85309E-03 5.88847E-02 7.80081E-05
 -1      1588-4.38077E-04 5.21718E-02 2.14959E-04
 -1      1589-1.43884E-03 5.15827E-02 1.00765E-04
 -1      1590-1.70786E-03 5.42151E-02 1.49795E-04
 -1      1591-2.59663E-03 5.36989E-02 1.64047E-04
 -1      1592-2.51242E-03 5.46591E-02 2.01378E-04
 -1      1593-2.58794E-03 5.32909E-02 2.06833E-04
 -1      1594-2.68889E-03 5.22836E-02 1.64947E-04
 -1      1595 3.57874E-04 4.43550E-02 3.99423E-05
 -1      1596-1.65923E-03 4.46148E-02 1.87247E-04
 -1      1597-1.21346E-03 4.21134E-02 1.91544E-04
 -1      1598-3.41649E-03 4.23621E-02 8.85031E-05
 -1      1599-1.52119E-03 5.64500E-02 2.64205E-04
 -1      1600-2.35522E-03 5.64233E-02 2.54635E-04
 -1      1601-8.33193E-04 5.62178E-02 2.14600E-04
 -1      1602-1.68755E-03 5.62091E-02 2.66002E-04
 -1      1603-2.26878E-03 5.81841E-02 2.88432E-04
 -1      1604-9.74719E-04 5.85666E-02 1.10051E-04
 -1      1605-1.39808E-03 5.86111E-02 1.07873E-04
 -1      1606-1.02838E-03 5.87238E-02 3.60264E-05
 -1      1607-1.37204E-03 5.88475E-02 2.99118E-05
 -1      1608-2.84620E-03 5.82276E-02 2.61795E-04
 -1      1609-2.53201E-03 5.92984E-02 2.98140E-04
 -1      1610-2.95111E-03 5.88036E-02 2.69306E-04
 -1      1611-3.30573E-03 5.92280E-02 2.87537E-04
 -1      1612-1.83737E-03 5.89014E-02 1.07546E-06
 -1      1613-1.90249E-03 5.85637E-02 4.62171E-05
 -1      1614-2.86109E-03 5.82277E-02 2.51969E-04
 -1      1615-1.66151E-03 4.72393E-02 1.96182E-04
 -1      1616-3.20300E-03 4.52767E-02 1.19106E-04
 -1      1617-7.65266E-04 5.75770E-02 1.11574E-04
 -1      1618-7.87946E-04 5.77549E-02 6.51528E-05
 -1      1619-5.00109E-04 5.63506E-02 6.19298E-05
 -1      1620-5.42028E-04 5.65529E-02 2.11725E-05
 -1      1621-9.75544E-04 5.84165E-02 1.13380E-04
 -1      1622 9.61828E-04 3.74104E-02 6.24938E-05
 -1      1623 1.15197E-03 3.54763E-02-9.60283E-06
 -1      1624 6.98670E-04 4.03884E-02 7.71792E-05
 -1      1625 8.80789E-04 3.86228E-02-7.30125E-06
 -1      1626-4.72968E-04 5.27726E-02 1.63346E-04
 -1      1627-1.66863E-03 5.03080E-02 2.02458E-04
 -1      1628-1.99437E-04 5.01017E-02 1.09434E-04
 -1      1629-3.59126E-03 5.82872E-02 2.38688E-04
 -1      1630-1.89718E-03 3.03253E-02 5.80048E-04
 -1      1631-1.99312E-03 2.84384E-02 5.72339E-04
 -1      1632-3.14566E-03 2.94324E-02 5.39000E-04
 -1      1633-2.99184E-03 4.15077E-02 3.90757E-05
 -1      1634-1.08578E-03 4.56984E-02 8.34727E-05
 -1      1635-1.00051E-03 4.07316E-02 7.41835E-05
 -1      1636-4.84718E-03 5.86851E-02 1.50824E-04
 -1      1637-4.78041E-03 5.84240E-02 1.68906E-04
 -1      1638-4.33607E-03 5.89271E-02 1.10154E-04
 -1      1639-4.25093E-03 5.86099E-02 1.49712E-04
 -1      1640-2.17586E-03 5.89551E-02 1.08331E-04
 -1      1641-1.49007E-03 5.85764E-02 1.20280E-04
 -1      1642-2.19084E-03 5.85525E-02 1.30843E-04
 -1      1643-4.21977E-03 3.13594E-02-7.81269E-05
 -1      1644-4.21620E-03 3.06272E-02-1.38908E-04
 -1      1645-4.34672E-03 3.01307E-02-1.57248E-04
 -1      1646-9.57985E-04 5.85346E-02 5.55118E-05
 -1      1647-1.04042E-03 5.85627E-02 1.13539E-04
 -1      1648-1.21564E-03 5.83816E-02 7.34892E-05
 -1      1649-1.42684E-03 5.88092E-02 4.43028E-05
 -1      1650 7.29318E-04 4.19208E-03-3.16529E-05
 -1      1651-4.45042E-04 2.55675E-03 1.03868E-05
 -1      1652 5.60208E-04 2.34235E-03-3.06639E-05
 -1      1653 2.78010E-04 3.62233E-03-2.70152E-06
 -1      1654 4.99973E-04 6.25730E-03-1.96488E-05
 -1      1655 4.56620E-04 5.56155E-03-4.88896E-05
 -1      1656-8.40582E-08-5.34437E-08-1.99269E-07
 -1      1657-7.82262E-08-3.86562E-08-2.39635E-07
 -1      1658 2.05382E-09 5.89064E-10 3.81763E-09
 -1      1659-5.40416E-03 5.87198E-02 1.73140E-04
 -1      1660-5.41494E-03 5.86783E-02 1.82382E-04
 -1      1661-5.27736E-03 5.85514E-02 1.52964E-04
 -1      1662-1.69122E-04-2.74909E-05-4.02709E-05
 -1      1663-3.09908E-04-4.92041E-05 3.79761E-06
 -1      1664-2.01365E-04-4.62374E-05-3.69760E-06
 -1      1665-3.03153E-04 6.13843E-07 3.91477E-05
 -1      1666-6.57587E-02 2.62248E-02-8.42026E-05
 -1      1667-2.24930E-01 2.62391E-02-2.47691E-04
 -1      1668-5.15068E-03 2.62000E-02-1.00513E-04
 -1      1669-6.72359E-02 2.62242E-02-8.36775E-05
 -1      1670-4.35383E-03 5.87492E-02 2.38585E-04
 -1      1671-3.85172E-03 5.91399E-02 2.41562E-04
 -1      1672-4.21760E-03 5.83431E-02 2.50282E-04
 -1      1673-3.70601E-03 5.86723E-02 2.57828E-04
 -1      1674-4.80511E-03 5.84377E-02 2.36667E-04
 -1      1675-4.92010E-03 5.87255E-02 2.17501E-04
 -1      1676-3.88016E-03 3.61286E-02-1.73824E-06
 -1      1677-3.90627E-03 3.53599E-02 4.63170E-05
 -1      1678-3.76299E-03 3.74841E-02 4.27709E-05
 -1      1679-1.98011E-03 5.82424E-02 4.14770E-05
 -1      1680-1.95092E-03 5.82857E-02 5.84624E-05
 -1      1681-8.66039E-04 5.85186E-02 1.04890E-04
 -1      1682-1.44549E-03 5.88573E-02 1.07761E-04
 -1      1683-4.31208E-03 2.88201E-02 5.88149E-05
 -1      1684-3.01826E-03 2.76877E-02 4.15224E-04
 -1      1685-4.14449E-03 2.70922E-02 2.86653E-04
 -1      1686-1.48128E-03 5.88478E-02 6.56765E-05
 -1      1687-2.08800E-03 5.89365E-02 8.35028E-05
 -1      1688-1.37088E-03 5.88329E-02 8.18004E-05
 -1      1689-1.95051E-03 5.89330E-02 9.27386E-05
 -1      1690-1.01428E-03 5.85210E-02 7.59461E-05
 -1      1691-1.02545E-03 5.84524E-02 1.13756E-04
 -1      1692-1.00800E-03 5.86873E-02 9.14830E-05
 -1      1693-1.76542E-04 3.03824E-02-3.41255E-04
 -1      1694-5.11489E-04 2.85657E-02-3.73177E-04
 -1      1695 1.70445E-03 2.87034E-02 4.24983E-05
 -1      1696-2.56724E-04 4.77150E-04 5.33991E-06
 -1      1697-4.20459E-04 2.23677E-04 6.60245E-05
 -1      1698-7.08742E-04 6.66722E-04 6.14441E-05
 -1      1699-7.83900E-05-3.80441E-05 4.05512E-05
 -1      1700-1.68342E-06 3.52428E-07 3.58167E-06
 -1      1701-2.12239E-06-9.41495E-07 2.45248E-06
 -1      1702-1.16159E-03 9.95212E-03 1.48175E-04
 -1      1703-2.66402E-03 9.55624E-03 5.36018E-05
 -1      1704-1.24456E-03 1.19960E-02 1.57668E-04
 -1      1705-2.92948E-03 1.15573E-02 5.82856E-05
 -1      1706-4.56275E-03 5.90194E-02 2.21318E-04
 -1      1707-5.04361E-03 5.89025E-02 2.02285E-04
 -1      1708-9.05927E-04 5.85768E-02 1.07713E-04
 -1      1709-6.94760E-08 1.35468E-07-3.59660E-09
 -1      1710-7.66259E-09 2.16653E-08 5.82842E-09
 -1      1711-8.37108E-08 7.42392E-08-1.55041E-08
 -1      1712-1.92491E-03 2.48893E-02-2.48130E-04
 -1      1713-3.07006E-03 2.37657E-02-5.19992E-04
 -1      1714-1.96811E-03 2.31157E-02-5.49496E-04
 -1      1715-1.70073E-03 5.80787E-02 2.99165E-04
 -1      1716-1.70830E-03 5.86865E-02 3.12084E-04
 -1      1717-3.11732E-03 4.67159E-02 9.52179E-05
 -1      1718-3.26232E-03 4.49047E-02 3.64994E-05
 -1      1719-3.36061E-03 4.35229E-02 5.50272E-05
 -1      1720-2.88082E-03 5.82123E-02 2.70155E-04
 -1      1721-2.42030E-03 5.86770E-02 2.90754E-04
 -1      1722-3.22329E-03 2.99230E-02-4.55326E-04
 -1      1723-4.35267E-03 2.89269E-02-2.55430E-04
 -1      1724-3.08307E-03 2.77959E-02-4.51438E-04
 -1      1725-1.04171E-03 5.85957E-02 2.97942E-04
 -1      1726-1.00744E-03 5.79597E-02 2.87521E-04
 -1      1727-1.02187E-03 5.87085E-02 2.94564E-04
 -1      1728-9.95007E-04 5.80670E-02 2.77954E-04
 -1      1729-1.04106E-04 1.21890E-04-3.57783E-06
 -1      1730 2.14679E-04 4.32626E-04 3.37958E-05
 -1      1731-3.69247E-04 1.67212E-04-6.23535E-05
 -1      1732-2.39228E-04 4.01781E-04-3.75755E-06
 -1      1733-4.36009E-03 5.83747E-02 2.32628E-04
 -1      1734 9.76297E-05 9.04365E-05 2.19040E-05
 -1      1735-1.77577E-04-3.90686E-05-8.18979E-05
 -1      1736-4.87051E-04 1.70954E-04-3.52930E-05
 -1      1737-3.04020E-04-4.05007E-06-3.02260E-05
 -1      1738-3.44235E-04 5.69241E-04-1.10245E-04
 -1      1739-1.02820E-03 1.26084E-03-5.87315E-05
 -1      1740-4.59600E-04 1.54825E-03-1.21434E-04
 -1      1741-3.96065E-03 5.91333E-02 2.58755E-04
 -1      1742-2.01283E-03 5.81409E-02 3.50611E-05
 -1      1743-1.99299E-03 5.82076E-02 1.35435E-05
 -1      1744-6.69162E-04 5.46865E-02 1.85516E-04
 -1      1745-5.20037E-03 5.88077E-02 1.35244E-04
 -1      1746-5.40569E-03 5.86590E-02 1.68465E-04
 -1      1747-5.37862E-03 5.87214E-02 1.66012E-04
 -1      1748 8.95388E-05 3.39072E-02 2.36167E-04
 -1      1749-1.09424E-03 3.45342E-02 2.97415E-04
 -1      1750-1.17335E-08 4.09431E-07 2.42430E-07
 -1      1751-1.08452E-07 8.85244E-07 2.72815E-07
 -1      1752-2.37698E-08 1.44194E-07 1.12396E-08
 -1      1753-6.96684E-08 2.79082E-07-8.61973E-08
 -1      1754-1.10900E-07 6.67781E-07-1.67186E-07
 -1      1755 4.11507E-09 2.13022E-07-1.94154E-08
 -1      1756-3.73544E-05 6.34312E-06-5.89231E-06
 -1      1757-6.04828E+00-1.93290E-02-1.59202E-03
 -1      1758-6.08939E+00-1.91439E-02-6.11147E-04
 -1      1759-6.68102E+00 5.09317E-02-6.15235E-04
 -1      1760-6.34461E+00-4.40925E-02-1.13406E-03
 -1      1761-8.37703E-04 5.61618E-02 2.31542E-04
 -1      1762-8.26516E-04 5.59323E-02 2.54578E-04
 -1      1763-8.13627E-04 5.58937E-02 2.32702E-04
 -1      1764-2.38913E-03 5.62629E-02 2.36611E-04
 -1      1765-2.34106E-03 5.72125E-02 2.40150E-04
 -1      1766 5.34773E-04 2.17978E-03-2.85102E-06
 -1      1767 7.07480E-04 3.97940E-03-8.42231E-06
 -1      1768 1.30054E-06 2.66680E-06-2.85641E-07
 -1      1769 1.57095E-05 2.36465E-05-1.07910E-05
 -1      1770 8.40073E-08 1.52384E-06-7.46983E-07
 -1      1771-1.73960E-04 4.73089E-05-4.77017E-05
 -1      1772-3.12666E-03 2.64843E-02 1.04404E-04
 -1      1773-4.21228E-03 3.01349E-02 3.45820E-05
 -1      1774-2.46703E-03 5.50111E-02 2.31079E-04
 -1      1775-1.44338E-03 5.32878E-02 2.22579E-04
 -1      1776-4.24164E-03 2.29734E-02-2.87874E-04
 -1      1777-3.11941E-03 2.22946E-02-5.75462E-04
 -1      1778-2.90445E-03 3.25892E-02 3.50242E-04
 -1      1779-4.02867E-03 3.31496E-02 1.41716E-05
 -1      1780-2.44749E-03 5.86945E-02 2.70105E-04
 -1      1781-1.73882E-03 5.87026E-02 2.71186E-04
 -1      1782 6.26156E-04 4.14437E-02 2.33996E-05
 -1      1783-1.16691E-03 3.97433E-02 2.05006E-04
 -1      1784-1.11891E-03 3.66927E-02 2.46093E-04
 -1      1785 4.19327E-05 2.53203E-05-1.47321E-05
 -1      1786 3.59791E-05 3.61457E-05-1.54365E-05
 -1      1787 8.49884E-05 7.21770E-05-2.36937E-05
 -1      1788 1.07847E-04 4.69765E-02 7.45081E-05
 -1      1789 4.25831E-04 4.33694E-02 9.17649E-05
 -1      1790 7.03553E-04 4.03765E-02 1.32551E-04
 -1      1791 4.24388E-04 4.33463E-02 1.35028E-04
 -1      1792-3.87408E-03 3.64306E-02-6.35585E-05
 -1      1793-3.74437E-03 3.81658E-02-8.55059E-07
 -1      1794-9.44945E-04 5.84271E-02 4.99051E-05
 -1      1795-9.79256E-04 5.83920E-02-1.32464E-05
 -1      1796-8.39998E-04 5.85216E-02 5.80273E-05
 -1      1797-8.10165E-04 5.77434E-02 1.07476E-05
 -1      1798 1.36868E-03 3.31293E-02-2.48296E-05
 -1      1799 1.22545E-03 3.43220E-02 4.29479E-05
 -1      1800-2.28077E-04 7.02872E-05 5.10866E-05
 -1      1801-1.00405E-05 6.23161E-07 2.87463E-07
 -1      1802-5.87954E-05 2.49551E-05 1.37428E-05
 -1      1803-4.53545E-03 2.76038E-02-2.01255E-04
 -1      1804-4.61324E-03 2.99718E-02-7.93220E-05
 -1      1805-1.73491E-04 7.30282E-05-6.35022E-06
 -1      1806-1.84273E-03 5.93313E-02 3.07779E-04
 -1      1807-1.41368E-03 5.83258E-02 1.14619E-04
 -1      1808-8.57138E-04 1.44328E-02-2.20837E-04
 -1      1809-9.07777E-04 1.74124E-02-2.56991E-04
 -1      1810 1.02541E-03 1.31861E-02 1.08698E-05
 -1      1811 1.23249E-03 1.60162E-02 8.30870E-06
 -1      1812-3.74092E-04 2.07349E-04-4.36651E-06
 -1      1813-1.05647E-03 5.93408E-02 3.17165E-04
 -1      1814-8.91161E-05-1.94810E-05 1.10492E-05
 -1      1815-3.06152E-05 2.70176E-06 1.43625E-05
 -1      1816-1.96296E-05-1.21950E-05 1.27594E-06
 -1      1817-1.16816E-04 1.40868E-04 1.03034E-05
 -1      1818 3.59967E-05 5.20459E-02 4.32999E-05
 -1      1819 2.70782E-04 4.85681E-02 5.37099E-05
 -1      1820 1.38415E-04 5.06598E-02 7.80216E-05
 -1      1821-9.89613E-04 5.81025E-02 2.69744E-04
 -1      1822-1.01735E-03 5.87252E-02 2.87041E-04
 -1      1823-3.02127E-03 5.86728E-02 2.70849E-04
 -1      1824-3.42962E-03 5.82567E-02 2.61889E-04
 -1      1825-7.66692E-06-3.08769E-06-5.39010E-07
 -1      1826-1.84194E-06-3.21515E-06 6.55251E-07
 -1      1827 4.88118E-05 3.21328E-05 1.38059E-05
 -1      1828 2.15227E-04 2.37333E-02 2.54418E-04
 -1      1829-1.54136E-03 2.26036E-02 4.93093E-04
 -1      1830 1.75053E-03 2.28491E-02-1.45983E-05
 -1      1831-5.88933E-05 2.18272E-02 3.03240E-04
 -1      1832-3.55654E-04 6.53336E-04 1.11658E-04
 -1      1833-2.53318E-06 7.25205E-04 2.53003E-06
 -1      1834-1.04548E-03 1.34549E-03 4.76689E-05
 -1      1835-5.67836E-04 1.40929E-03 1.23786E-04
 -1      1836-4.39256E-03 2.89842E-02-3.90652E-05
 -1      1837-5.20554E-03 2.63873E-02-9.08836E-05
 -1      1838-4.71784E-03 2.33838E-02-9.49262E-05
 -1      1839-4.35750E-03 2.47646E-02-2.46953E-05
 -1      1840-1.43402E-04-5.58039E-05 6.13794E-05
 -1      1841-1.76698E-04-3.95344E-05 2.66435E-05
 -1      1842-3.19689E-03 5.92193E-02 2.59574E-04
 -1      1843-1.47914E-03 2.38507E-02 3.84627E-04
 -1      1844-4.59599E-03 2.75686E-02 7.93790E-05
 -1      1845-4.33305E-03 2.99523E-02 1.99826E-06
 -1      1846-1.20186E-03 5.15709E-02 3.35052E-05
 -1      1847-1.66946E-03 5.28036E-02 2.22508E-04
 -1      1848-4.73265E-04 5.61855E-02 1.18045E-04
 -1      1849-7.92461E-05-7.06914E-05-3.54888E-06
 -1      1850-5.56977E-05-5.73742E-05-1.02115E-06
 -1      1851-9.88088E-04 1.47434E-03-7.53558E-06
 -1      1852-9.88090E-04 1.42685E-03 6.42593E-05
 -1      1853 9.43440E-04 1.08005E-02-2.72551E-05
 -1      1854 8.74558E-04 7.26188E-03-2.94944E-05
 -1      1855 9.33288E-04 9.95509E-03-2.31546E-05
 -1      1856 8.43659E-04 6.51635E-03-1.53485E-05
 -1      1857-4.85019E-03 5.89745E-02 2.48153E-04
 -1      1858-4.49458E-03 5.87634E-02 2.42085E-04
 -1      1859-5.29481E-03 5.86923E-02 2.05896E-04
 -1      1860-5.09870E-03 5.85208E-02 1.96462E-04
 -1      1861-3.90700E-03 5.86904E-02 2.49587E-04
 -1      1862-1.92080E-04-1.12428E-05 8.19126E-05
 -1      1863-3.00464E-03 4.79496E-02 1.34134E-04
 -1      1864-2.92294E-03 4.93226E-02 1.11871E-04
 -1      1865-3.02748E-03 4.80524E-02 6.83542E-05
 -1      1866-4.83629E-04 8.46677E-05-1.09774E-07
 -1      1867-7.23125E-04 5.40663E-04-4.98349E-05
 -1      1868-4.64944E-04 1.55244E-04 4.09080E-05
 -1      1869-7.13416E-04 4.38997E-04 6.16697E-06
 -1      1870-4.47594E-03 2.99308E-02-2.84888E-05
 -1      1871 3.83669E-04 1.13133E-03 4.09612E-05
 -1      1872-1.38914E-03 5.85857E-02-2.57895E-05
 -1      1873-1.55104E-03 5.62644E-02 7.99248E-05
 -1      1874-2.63883E-03 5.39038E-02 9.87201E-06
 -1      1875-1.25294E-03 5.38493E-02 9.48663E-05
 -1      1876-4.32839E-03 2.59811E-02-1.11684E-05
 -1      1877-4.64429E-03 5.83951E-02 1.41065E-04
 -1      1878-5.09125E-03 5.84933E-02 1.61324E-04
 -1      1879-4.22264E-03 5.83374E-02 1.49316E-04
 -1      1880-9.14600E-07 7.90810E-07 6.65544E-07
 -1      1881 1.47650E-07 2.52370E-08-1.75687E-08
 -1      1882-1.49936E-06 2.68666E-07 8.23981E-07
 -1      1883-3.58343E-03 4.00083E-02 7.64990E-05
 -1      1884-1.54893E-03 5.67774E-02 2.37136E-05
 -1      1885-2.36438E-03 5.65285E-02 7.59897E-05
 -1      1886-1.33685E-03 5.63266E-02 1.91611E-05
 -1      1887-2.79024E-03 3.14099E-02-3.86048E-04
 -1      1888-4.11510E-03 3.21491E-02-9.29398E-05
 -1      1889-2.16198E-03 5.76082E-02 6.99261E-05
 -1      1890 1.67693E-04 4.60543E-02 1.56163E-04
 -1      1891-1.69541E-03 4.85115E-02 3.14653E-05
 -1      1892-1.31015E-03 4.55664E-02-8.52238E-06
 -1      1893-8.35109E-05-6.48513E-06 2.66848E-05
 -1      1894 1.22600E-03 3.43559E-02 7.74977E-05
 -1      1895 1.47227E-03 3.13880E-02 1.78310E-05
 -1      1896 1.40562E-03 3.19246E-02 1.41435E-05
 -1      1897-8.68969E-04 5.85210E-02 1.68713E-05
 -1      1898-9.61458E-04 5.85511E-02-8.59150E-06
 -1      1899-4.16649E-03 3.23862E-02-1.13069E-06
 -1      1900-4.28006E-03 3.14596E-02-3.31189E-05
 -1      1901-4.16401E-03 3.17017E-02 1.33080E-04
 -1      1902-4.28814E-03 2.41528E-02-4.21970E-04
 -1      1903 7.17186E-04 4.06171E-03 1.94610E-05
 -1      1904-4.30653E-04 2.39512E-03-6.59188E-06
 -1      1905 5.52975E-04 2.26871E-03 3.42281E-05
 -1      1906-1.89427E-03 5.85513E-02 1.75679E-05
 -1      1907-5.75718E-04 4.82547E-03-8.24444E-06
 -1      1908 2.14460E-06 2.33422E-05-9.32193E-06
 -1      1909-5.41313E-06 1.29876E-05-3.77402E-06
 -1      1910 6.15724E-06 2.24002E-05-5.14710E-06
 -1      1911-1.55012E-03 5.74932E-02 8.98472E-05
 -1      1912-5.39792E-03 5.86448E-02 1.82730E-04
 -1      1913-5.39728E-03 5.87101E-02 1.77784E-04
 -1      1914 1.13360E-03 1.48813E-02-3.93367E-05
 -1      1915 1.29363E-03 1.70475E-02-8.13912E-05
 -1      1916 1.35252E-03 1.78819E-02-3.48329E-05
 -1      1917 1.58489E-03 2.93207E-02 1.81379E-05
 -1      1918-5.35956E-03 5.86146E-02 1.89374E-04
 -1      1919-7.18374E-04 7.73726E-03 1.25046E-04
 -1      1920-2.31608E-03 7.23539E-03 4.99707E-05
 -1      1921-1.73008E-03 5.93156E-02 3.05555E-04
 -1      1922-2.42727E-03 5.92884E-02 2.89327E-04
 -1      1923 3.70802E-04 1.10707E-03 8.30595E-06
 -1      1924 2.10698E-04 4.09090E-04 3.91501E-06
 -1      1925 3.59809E-04 1.02424E-03-2.92457E-05
 -1      1926-5.30988E-03 5.88110E-02 2.18275E-04
 -1      1927-8.04820E-05 1.91086E-05 6.38903E-07
 -1      1928-6.10878E-05 2.43801E-04-1.76824E-06
 -1      1929-5.30245E-05 3.13105E-04 6.32506E-06
 -1      1930-2.97213E-03 1.17302E-02-7.56242E-07
 -1      1931-2.70082E-03 9.71928E-03-4.16230E-06
 -1      1932-3.99033E-03 5.91396E-02 2.73160E-04
 -1      1933-2.41081E-03 5.61504E-02 2.48338E-06
 -1      1934-3.82857E-03 5.83024E-02 1.53628E-04
 -1      1935-3.10950E-03 5.82409E-02 1.36508E-04
 -1      1936-3.54746E-03 5.82600E-02 1.35723E-04
 -1      1937-2.91012E-03 4.80771E-02 5.26425E-05
 -1      1938-1.44497E-03 4.48439E-02 3.57515E-05
 -1      1939-3.62361E-03 1.72358E-02-9.17593E-05
 -1      1940-3.42415E-04 1.22009E-03-7.73507E-06
 -1      1941-7.06963E-04 6.58426E-04-6.60012E-05
 -1      1942-9.30403E-04 5.70412E-02 2.66706E-04
 -1      1943-1.56022E-03 5.70922E-02 2.20316E-04
 -1      1944-1.54145E-03 5.59899E-02 1.92518E-04
 -1      1945-3.10439E-04 3.33776E-02-2.38168E-04
 -1      1946-2.54108E-03 5.82276E-02 1.26971E-04
 -1      1947-1.82970E-03 5.86253E-02 7.51845E-05
 -1      1948-1.49877E-03 5.82945E-02 1.33363E-04
 -1      1949-7.65500E-04 2.77803E-02 7.92189E-06
 -1      1950 8.06482E-04 3.00185E-02 1.70128E-05
 -1      1951-2.82702E-03 2.97791E-02 2.14699E-05
 -1      1952-1.24376E-03 3.20224E-02 1.67148E-05
 -1      1953-2.90438E-03 1.13382E-02-8.14763E-05
 -1      1954-1.93537E-06 1.10000E-05 9.30839E-07
 -1      1955-7.43949E-06 1.25559E-05-2.98899E-06
 -1      1956-2.97048E-06 8.46036E-06-2.61508E-07
 -1      1957-3.26480E-03 1.41864E-02-8.19813E-05
 -1      1958-1.19184E-06 9.76746E-07-1.34651E-06
 -1      1959-1.77888E-06-3.70667E-07-1.92366E-06
 -1      1960-1.07957E-07 4.42753E-07-2.84533E-07
 -1      1961-5.33104E-03 5.85816E-02 2.09526E-04
 -1      1962-4.83370E-03 5.84522E-02 2.22307E-04
 -1      1963 8.55541E-04 6.62743E-03 4.84852E-07
 -1      1964 1.52570E-03 2.00736E-02-5.23635E-05
 -1      1965 8.37513E-07 4.01946E-06 2.74871E-07
 -1      1966-1.41537E-03 5.83063E-02-4.48528E-06
 -1      1967 8.85149E-04 1.12713E-02-8.08129E-05
 -1      1968-1.37346E-03 5.83508E-02 1.06970E-04
 -1      1969-2.77336E-03 5.21843E-02 6.67368E-05
 -1      1970-2.40205E-03 7.67154E-03-2.25193E-05
 -1      1971-1.60457E-04 4.93731E-02 1.80060E-04
 -1      1972-1.86031E-03 5.82760E-02 1.02423E-04
 -1      1973-2.08334E-03 5.82529E-02 1.17897E-04
 -1      1974-3.19831E-03 5.92254E-02 2.72716E-04
 -1      1975-3.86686E-03 5.91446E-02 2.57181E-04
 -1      1976-9.66307E-05 2.04490E-02 2.52214E-04
 -1      1977-4.15513E-03 2.70572E-02-3.83882E-04
 -1      1978-5.09746E-03 2.64208E-02-6.93053E-05
 -1      1979-4.96342E-03 2.62571E-02 2.07502E-05
 -1      1980-4.44646E-03 2.59697E-02-4.93597E-05
 -1      1981-1.70556E-03 3.42718E-02-2.78142E-04
 -1      1982-1.68991E-03 3.66408E-02-2.05902E-04
 -1      1983-4.03438E-03 3.40253E-02-5.79153E-05
 -1      1984-2.58348E-02 2.60825E-02-1.38857E-04
 -1      1985-1.43068E-01 2.61499E-02-1.75709E-04
 -1      1986-2.92451E-07 9.08241E-07 3.96959E-07
 -1      1987 1.18936E-06 1.05465E-06-4.41310E-07
 -1      1988-2.70544E-08 3.54384E-08-1.36188E-07
 -1      1989-2.20245E-03 5.73958E-02 1.39941E-07
 -1      1990-2.19697E-03 5.73847E-02 3.38220E-05
 -1      1991-4.32793E-03 3.13890E-02-5.15117E-05
 -1      1992-1.25601E-03 5.85980E-02 5.84571E-05
 -1      1993-9.08920E-04 5.85543E-02 2.20306E-05
 -1      1994-1.02729E-03 5.86855E-02 3.90909E-05
 -1      1995-2.42745E-03 5.92845E-02 2.80740E-04
 -1      1996-3.39764E-03 5.82669E-02 2.53414E-04
 -1      1997-1.05415E-04-3.09701E-05-1.53395E-06
 -1      1998-7.84541E-05-1.82003E-05-1.34859E-05
 -1      1999-2.42737E-03 5.59053E-02 2.14169E-04
 -1      2000-8.71525E-04 3.30580E-02 4.88705E-05
 -1      2001-2.76052E-03 2.63939E-02 4.32256E-05
 -1      2002-2.90622E-03 3.40615E-02 4.18439E-05
 -1      2003-2.16964E-03 1.09010E-02-1.25811E-05
 -1      2004-2.33359E-03 1.38923E-02 2.09572E-05
 -1      2005-2.02606E-03 8.77606E-03 1.65472E-05
 -1      2006-2.22712E-03 1.16312E-02 4.40381E-05
 -1      2007-1.89623E-06 5.56915E-06-1.81469E-06
 -1      2008-6.45333E-06 1.28074E-05-5.19276E-06
 -1      2009-3.28837E-07 1.37231E-05-4.96267E-06
 -1      2010-9.53071E+00 2.61205E-02-1.18613E-03
 -1      2011-5.37198E-03 5.86914E-02 1.86749E-04
 -1      2012-1.57858E-06-4.59172E-06 1.81100E-06
 -1      2013-9.27578E-06-9.90959E-06 2.19380E-06
 -1      2014-1.16981E-06-9.06303E-06 7.58219E-06
 -1      2015-2.77899E-03 5.08549E-02 1.66579E-04
 -1      2016-2.81706E-03 5.08050E-02 1.10270E-04
 -1      2017-1.03340E-03 5.87026E-02 1.03818E-04
 -1      2018 8.59049E-05 7.02100E-05 1.57923E-05
 -1      2019 3.45275E-05 3.22112E-05 1.46564E-05
 -1      2020 2.13486E-04 3.14044E-02 3.17867E-04
 -1      2021-2.04596E-03 5.50993E-03-2.47490E-05
 -1      2022-1.96044E-03 5.16810E-03 5.15785E-05
 -1      2023-2.60937E-03 2.27750E-02 4.76228E-04
 -1      2024-4.19402E-03 2.24672E-02 1.77212E-04
 -1      2025-2.60329E-03 2.16642E-02 4.31319E-04
 -1      2026-1.38753E-05-1.49158E-06-8.18658E-06
 -1      2027-2.40873E-07 5.77439E-07-1.43814E-06
 -1      2028-1.68992E-03 4.26645E-02-7.08107E-05
 -1      2029-8.90759E-08 2.96616E-07 8.64677E-07
 -1      2030-7.93767E-06-5.80625E-07 7.64007E-06
 -1      2031-8.97483E-08-9.42669E-07 4.17984E-06
 -1      2032-4.00176E-08-6.75511E-06-1.02225E-06
 -1      2033 3.78010E-07 1.12974E-07-1.34905E-07
 -1      2034 6.04603E-04 3.99971E-02 7.82990E-05
 -1      2035-2.79342E-03 2.80766E-02 3.03916E-05
 -1      2036-2.60154E-03 2.10798E-02 3.08780E-05
 -1      2037-3.68501E-03 1.79843E-02 6.05290E-05
 -1      2038-2.47072E-03 1.86495E-02 2.17036E-04
 -1      2039-3.84766E-03 1.93252E-02 4.14728E-05
 -1      2040 8.65509E-04 2.54799E-02 4.07874E-06
 -1      2041 9.04449E-04 2.24414E-02-1.13486E-05
 -1      2042 8.66806E-04 2.51732E-02 9.08380E-06
 -1      2043 9.06416E-04 2.21348E-02-8.93251E-06
 -1      2044-1.95105E-03 7.88926E-03 5.57654E-05
 -1      2045 9.47881E-04 1.50586E-02-2.30653E-05
 -1      2046 2.54137E-04 3.18043E-03-2.48914E-05
 -1      2047-9.27448E-04 5.71781E-02 2.52822E-04
 -1      2048 7.84932E-05 2.95552E-02 3.59252E-04
 -1      2049 1.59529E-03 3.05908E-02-2.58810E-05
 -1      2050-2.42203E-03 1.57788E-02 3.53776E-06
 -1      2051-5.10333E-04 1.40842E-02-1.45410E-05
 -1      2052-1.63309E-08 1.85187E-08-4.90867E-09
 -1      2053-2.78767E-08-7.88181E-08 2.39865E-07
 -1      2054-2.43900E-03 8.03443E-03-8.67008E-05
 -1      2055-9.39679E+00 2.62231E-02-1.20084E-03
 -1      2056-9.39767E+00 2.61873E-02-1.16260E-03
 -1      2057-2.60144E-06-3.08040E-06-2.48510E-06
 -1      2058-3.14837E-06-4.74009E-06 1.48096E-06
 -1      2059-1.92806E-06-1.71160E-06 7.86741E-07
 -1      2060 1.73303E-05 2.93170E-05 7.96324E-06
 -1      2061 3.27166E-05 4.29740E-05 3.98916E-06
 -1      2062 1.61759E-06 3.34744E-06 8.49544E-07
 -1      2063-7.42085E-04 2.58054E-02 3.03165E-05
 -1      2064 2.03003E-04 4.04811E-04-2.73117E-05
 -1      2065 9.38264E-04 1.05116E-02-1.71462E-05
 -1      2066 9.51669E-04 1.56498E-02-2.36084E-05
 -1      2067 1.01110E-06-2.58474E-06-5.92098E-09
 -1      2068-1.03196E-03 5.93242E-02 3.04007E-04
 -1      2069-1.03105E-03 5.93346E-02 2.87016E-04
 -1      2070-1.73134E-03 5.93182E-02 3.05522E-04
 -1      2071-4.41175E-03 5.83880E-02 2.20059E-04
 -1      2072-3.97404E-03 2.02016E-02-6.02149E-05
 -1      2073-3.90068E-03 1.96856E-02-1.44238E-04
 -1      2074-4.08742E-03 2.15906E-02-1.81167E-04
 -1      2075-7.67406E-05-1.14409E-05-3.53623E-05
 -1      2076 7.08290E-04 8.98203E-03-2.91999E-05
 -1      2077 5.97502E-04 7.43785E-03 7.90960E-07
 -1      2078-2.30014E-04 5.45379E-02 7.89693E-05
 -1      2079-2.56728E-04 5.47080E-02 2.90794E-05
 -1      2080-5.21070E-03 5.88528E-02 2.12515E-04
 -1      2081-4.62373E-03 5.90168E-02 2.39383E-04
 -1      2082-1.72841E-03 5.80807E-02 2.48158E-04
 -1      2083 1.73996E-04 4.60444E-02 1.14650E-04
 -1      2084-2.93079E-03 4.72797E-02 3.83264E-05
 -1      2085-2.98940E-03 4.23797E-02 3.58013E-05
 -1      2086-2.99156E-03 4.35562E-02 4.04588E-05
 -1      2087-1.20147E-03 3.98380E-02-1.06045E-04
 -1      2088-3.69007E-03 3.90690E-02-2.92113E-05
 -1      2089-3.47074E-03 4.21308E-02 3.89216E-06
 -1      2090-7.36086E-04 5.83944E-04 4.74837E-05
 -1      2091-4.52076E-04 1.12526E-02 6.38656E-06
 -1      2092-6.71321E-04 7.46197E-03 1.56420E-05
 -1      2093 9.37988E-04 1.79271E-02-1.60538E-05
 -1      2094-3.79846E-03 1.84078E-02-3.44337E-05
 -1      2095-3.54067E-03 1.64139E-02 7.91567E-06
 -1      2096 4.52987E-07 2.43229E-06 9.36261E-07
 -1      2097-2.63834E-07 3.34802E-08 3.31221E-08
 -1      2098-7.39715E+00-6.24438E-02-5.03587E-06
 -1      2099-6.39112E+00 8.07293E-02-1.48627E-03
 -1      2100-6.39113E+00-5.98205E-02-2.79888E-05
 -1      2101-2.58355E-03 5.45626E-02 7.00276E-05
 -1      2102-1.32218E-03 2.86023E-03 6.66656E-05
 -1      2103-3.52889E-03 4.11440E-02 4.58230E-05
 -1      2104-3.18747E-05 2.82934E-06-1.76499E-05
 -1      2105-2.48662E-05-1.45989E-05 3.10673E-06
 -1      2106-3.87127E-03 1.91883E-02 6.75040E-06
 -1      2107-1.92951E-03 2.71227E-02 2.87747E-04
 -1      2108-2.10224E-03 2.59495E-02 1.16841E-07
 -1      2109-1.32435E-03 2.90883E-03 2.83249E-06
 -1      2110-1.04397E-03 1.64012E-03-6.22853E-05
 -1      2111-3.24314E-03 2.47342E-02-3.39849E-04
 -1      2112-2.81792E-03 5.11501E-02 2.49051E-05
 -1      2113-9.79797E-04 1.83237E-02 2.01929E-05
 -1      2114-1.21835E-04-5.70812E-05-4.22813E-05
 -1      2115 2.28125E-07-1.47837E-07 1.71821E-09
 -1      2116-4.28498E-03 2.21951E-02-1.45526E-04
 -1      2117 6.59486E-04 8.14058E-03-6.32479E-05
 -1      2118-8.74321E+00 2.62923E-02-1.16320E-03
 -1      2119-9.53740E+00 2.63497E-02-1.15775E-03
 -1      2120-4.12992E-03 2.09060E-02-6.68027E-05
 -1      2121-1.50581E-03 1.88090E-02-3.05785E-04
 -1      2122 1.44848E-03 1.91062E-02-1.73228E-05
 -1      2123-1.34780E-06-3.83350E-06-6.02651E-07
 -1      2124-1.69752E-06-2.44926E-06-2.23273E-06
 -1      2125-9.27583E-07-2.62222E-06-2.97324E-06
 -1      2126 2.83036E-08-2.81562E-07-4.10780E-07
 -1      2127-1.01938E-03 1.16099E-03 5.31468E-07
 -1      2128-1.44415E-03 2.68434E-03-7.00324E-05
 -1      2129-1.43419E-03 2.55991E-03-3.40959E-06
 -1      2130 1.99633E-04 4.98714E-02 1.11015E-04
 -1      2131-1.51393E-03 5.05913E-02 8.38113E-05
 -1      2132-9.11512E-05 5.33326E-02 1.17895E-04
 -1      2133-8.60740E+00 2.61665E-02-9.96754E-04
 -1      2134-6.63507E-04 5.63150E-03-1.63604E-04
 -1      2135-7.42721E-04 8.65304E-03-1.84141E-04
 -1      2136-4.64172E-03 2.35044E-02-5.42848E-05
 -1      2137-1.95438E-04 1.21731E-03-5.94564E-06
 -1      2138-1.02507E-03 4.24465E-02 3.60384E-05
 -1      2139 4.97560E-04 4.37349E-02 5.75256E-05
 -1      2140-5.54568E-04 3.13761E-03-1.42619E-04
 -1      2141 7.56324E-04 3.24114E-02 4.51929E-05
 -1      2142 6.71089E-04 3.69873E-02 5.46728E-05
 -1      2143 8.03933E-04 2.97349E-02 2.53457E-05
 -1      2144-1.52779E-03 5.26740E-02 3.27182E-05
 -1      2145-8.93068E+00 2.61314E-02-1.13294E-03
 -1      2146-8.59641E+00 2.61886E-02-1.20837E-03
 -1      2147-4.93771E-03 5.88442E-02 1.44332E-04
 -1      2148-3.99738E-03 5.89416E-02 1.17498E-04
 -1      2149-4.45592E-03 5.89090E-02 1.18681E-04
 -1      2150-1.34702E-03 5.88274E-02 6.39244E-05
 -1      2151-1.08546E-03 5.86984E-02 6.24371E-05
 -1      2152-1.96513E-03 5.15926E-03-8.02308E-05
 -1      2153 7.10130E-05 2.37582E-05-1.32505E-05
 -1      2154-4.19856E-04 5.20776E-02 1.84014E-04
 -1      2155 1.29703E-08 1.73414E-08 1.71401E-08
 -1      2156-6.54537E-04 5.42866E-02 2.38135E-04
 -1      2157-4.50339E-08-9.85436E-08-4.74742E-07
 -1      2158 5.84407E-08-1.94293E-07 3.07185E-07
 -1      2159-4.07205E-03 2.60617E-02-6.03839E-05
 -1      2160-5.02390E-03 2.59071E-02 3.69422E-05
 -1      2161 1.09701E-04 1.00664E-04-2.17318E-06
 -1      2162-2.67166E-04 1.76233E-04-9.75067E-05
 -1      2163-4.83144E-05 3.03832E-04 1.41417E-05
 -1      2164 1.08437E-03 1.41208E-02-8.34341E-05
 -1      2165-2.53132E-03 1.89408E-02 4.31914E-05
 -1      2166-2.90602E-04 4.51126E-03 3.31929E-06
 -1      2167-1.62174E-03 4.71342E-03 6.03773E-05
 -1      2168 9.75851E-05 7.86450E-05-4.93260E-07
 -1      2169 9.17106E-05 1.57747E-03-8.65034E-06
 -1      2170-2.59819E-03 5.86403E-02 1.33368E-04
 -1      2171-2.60938E-03 5.82264E-02 1.23693E-04
 -1      2172-2.64698E-06 2.23439E-05-2.67140E-06
 -1      2173-3.80772E-03 5.86565E-02 1.13785E-04
 -1      2174-2.87691E-03 5.86388E-02 9.83102E-05
 -1      2175-3.10964E-03 5.89663E-02 1.06255E-04
 -1      2176-4.02705E-03 3.38262E-02-1.47367E-05
 -1      2177-2.79750E-03 5.14600E-02 4.13365E-05
 -1      2178-4.49280E-03 2.37201E-02-1.89062E-04
 -1      2179 1.55121E-03 2.09911E-02-2.52837E-05
 -1      2180-2.53846E-03 1.97920E-02 3.03632E-04
 -1      2181-2.51644E-02 2.63169E-02-1.16631E-04
 -1      2182-6.57701E-02 2.62773E-02-1.18116E-04
 -1      2183-6.43369E-01 2.61429E-02-3.46013E-04
 -1      2184-9.16765E-01 2.62491E-02-3.51637E-04
 -1      2185-8.05246E-01 5.75389E-02 8.25559E-04
 -1      2186-8.17853E-01-5.51535E-03-1.76260E-03
 -1      2187-1.64297E-04 1.74280E-02 1.44171E-04
 -1      2188 1.79925E-03 2.58175E-02 1.96852E-05
 -1      2189-5.12678E-01 2.62030E-02-2.43039E-04
 -1      2190-4.06946E-03 2.04898E-02-2.80070E-06
 -1      2191-4.39281E-03 2.29841E-02 7.32961E-05
 -1      2192-5.41681E-03 5.87008E-02 1.93473E-04
 -1      2193-9.01844E-04 5.11235E-03 1.29352E-04
 -1      2194-3.16596E-01 2.61826E-02-2.31447E-04
 -1      2195-4.05622E-03 2.10585E-02 9.58760E-05
 -1      2196 4.67993E-05 4.24960E-05-3.85848E-06
 -1      2197 9.65984E-04 3.74043E-02 1.13693E-04
 -1      2198-6.08941E+00 1.20159E-01-1.47831E-03
 -1      2199-7.06894E+00 1.23172E-01 2.04005E-04
 -1      2200-6.04831E+00 1.20259E-01 5.11752E-04
 -1      2201-9.17845E-04 5.72222E-02 2.37749E-04
 -1      2202 1.14174E-04 1.90945E-03 9.47923E-06
 -1      2203-2.61809E-06 8.20507E-04 1.46976E-05
 -1      2204 1.65109E-04 2.33907E-03 2.57686E-05
 -1      2205 5.78868E-04 4.08362E-02 6.70852E-05
 -1      2206 6.53859E-04 3.78328E-02 4.26196E-05
 -1      2207-3.82916E-03 5.89511E-02 1.10399E-04
 -1      2208-2.90669E-03 5.89682E-02 1.04559E-04
 -1      2209-1.39460E-01 2.62771E-02-1.17290E-04
 -1      2210-3.14450E-04 1.80004E-04 1.01708E-04
 -1      2211 7.95884E-04 1.00281E-02 2.46536E-06
 -1      2212-1.28564E-03 1.28934E-02-2.16332E-04
 -1      2213-2.26346E-06-2.79951E-07-1.50909E-06
 -1      2214-5.35242E-03 5.86728E-02 1.56696E-04
 -1      2215-1.70624E-03 5.45533E-03 6.93282E-06
 -1      2216 3.17909E-04 4.77507E-02 8.48601E-05
 -1      2217-5.55480E-04 3.18891E-03 1.19183E-04
 -1      2218-2.47558E-08 3.08799E-08-1.08977E-08
 -1      2219-6.99407E+00 1.00267E-02-1.10572E-03
 -1      2220-7.49836E+00 4.45048E-02-7.72706E-04
 -1      2221-7.67261E+00-4.69045E-02-1.50660E-03
 -1      2222-7.55600E+00 2.81786E-02-1.01011E-03
 -1      2223-7.72499E+00-6.32695E-02-5.26959E-04
 -1      2224-8.24422E+00-2.91194E-02-9.74971E-04
 -1      2225-7.24212E-05-7.53180E-05-2.42980E-05
 -1      2226 9.88254E-04 1.28800E-02-4.43938E-05
 -1      2227-6.37822E-04 5.42046E-02 2.11614E-04
 -1      2228-1.34942E-04 1.97818E-02-2.88202E-04
 -1      2229-2.61620E-03 2.06287E-02-4.11569E-04
 -1      2230-1.59259E-03 2.13533E-02-5.29567E-04
 -1      2231-2.64002E-03 2.25715E-02 1.02423E-05
 -1      2232-1.18935E-06-1.18775E-06 2.35094E-06
 -1      2233-2.61307E-03 5.41511E-02 3.63263E-05
 -1      2234-1.88349E-03 4.64100E-03-7.82556E-06
 -1      2235-6.06827E-08 2.49616E-08 1.02384E-07
 -1      2236-1.05851E-08 1.30801E-08-1.25759E-08
 -1      2237-1.37027E-06 1.84273E-06-6.18560E-07
 -1      2238-1.63432E-06 6.41733E-07-1.13756E-06
 -1      2239-2.42790E-06 1.97264E-06-1.71147E-06
 -1      2240 7.58398E-05 2.06634E-02-2.85082E-04
 -1      2241-3.13341E-03 5.89739E-02 1.05592E-04
 -1      2242-8.43396E+00 1.19312E-01-9.47310E-04
 -1      2243-8.23204E+00-2.92147E-02-1.36665E-03
 -1      2244-4.19979E-05-5.49049E-05-1.31011E-05
 -1      2245-7.91370E+00 1.18306E-01-1.64626E-03
 -1      2246-8.08107E+00 2.63488E-02-1.02502E-03
 -1      2247 8.99399E-05 1.04683E-04-2.47073E-05
 -1      2248-7.89549E+00 1.18358E-01 1.08550E-05
 -1      2249-8.05536E+00 2.61394E-02-1.05487E-03
 -1      2250 2.46682E-07-1.91719E-06-2.59581E-07
 -1      2251-7.74304E-06-2.16990E-07-3.71837E-07
 -1      2252-4.80155E-03 5.86678E-02 1.33843E-04
 -1      2253-6.53001E-04 5.86588E-04-9.65878E-06
 -1      2254-3.99899E-05-2.18832E-05-7.79072E-06
 -1      2255-9.74840E-04 5.86804E-02 6.72233E-05
 -1      2256-4.30755E-05-2.41921E-05 1.38720E-06
 -1      2257-2.95453E-03 2.54386E-02 2.28774E-05
 -1      2258-1.65160E-03 2.51356E-02 1.17571E-04
 -1      2259-2.74565E-03 2.63636E-02-2.35982E-04
 -1      2260-4.12981E-03 2.61591E-02-1.32120E-04
 -1      2261-4.28578E-03 2.35464E-02 2.50241E-04
 -1      2262-6.41366E-04 2.08135E-02-7.33058E-06
 -1      2263-1.51184E-04 4.93748E-02 1.46546E-04
 -1      2264-2.98941E-03 2.48194E-02 1.73574E-04
 -1      2265-2.44376E-04 2.73476E-02-2.17697E-04
 -1      2266-3.43805E-03 1.58360E-02 8.52982E-05
 -1      2267-3.17715E-03 1.33409E-02-1.06199E-05
 -1      2268-3.24162E-03 1.40782E-02 8.01178E-05
 -1      2269-1.50501E-03 2.96819E-03 5.01133E-05
 -1      2270-3.32947E-03 1.46150E-02 1.42363E-05
 -1      2271-7.06082E-05-1.10495E-06-8.10476E-06
 -1      2272-7.61320E-05 8.84078E-06 1.29334E-06
 -1      2273 3.61628E-04 4.47905E-03 1.48606E-05
 -1      2274 3.48043E-05 1.05812E-03 2.80551E-05
 -1      2275-5.61090E-06-9.01942E-07 2.70608E-07
 -1      2276-1.97672E-06-1.06612E-06 4.89887E-08
 -1      2277-1.43345E-03 1.67544E-02 2.08910E-04
 -1      2278-4.23247E-04 2.66591E-02 1.65540E-04
 -1      2279 1.75922E-03 2.80039E-02 1.71405E-05
 -1      2280 1.81267E-03 2.51605E-02 9.24375E-06
 -1      2281-1.82008E-06-5.21251E-07 1.82506E-06
 -1      2282-5.90609E-08-1.82189E-08 1.51127E-07
 -1      2283-8.17522E-08 7.04640E-08 5.69551E-08
 -1      2284-1.50480E-06 2.56472E-06-5.87467E-07
 -1      2285-2.83655E-06 6.40053E-06-2.70302E-06
 -1      2286-3.64726E-06 5.32774E-06-2.62190E-06
 -1      2287-3.89184E-06 5.67538E-06-3.02601E-06
 -1      2288-2.77154E-06-1.21424E-06 1.09235E-06
 -1      2289-1.91490E-06-5.49395E-07-1.74611E-06
 -1      2290-1.36581E-03 1.49475E-02 1.91720E-04
 -1      2291-3.08836E-06 3.79226E-07-7.96426E-07
 -1      2292-3.13801E-06-2.57291E-07 2.82443E-09
 -1      2293-8.33704E-04 1.32090E-02 1.52766E-04
 -1      2294-5.07520E-06-4.68955E-06 1.00607E-06
 -1      2295-1.83515E-03 6.53931E-03-2.57174E-05
 -1      2296 4.43669E-04 4.49814E-02 1.02042E-04
 -1      2297-5.19426E+00-4.01660E-02-5.13858E-04
 -1      2298-5.15192E+00-4.04103E-02-2.00100E-03
 -1      2299-5.19425E+00 9.26814E-02-1.16280E-03
 -1      2300-5.71928E+00 2.62147E-02-8.73059E-04
 -1      2301-2.95164E-03 4.64780E-02 2.76373E-05
 -1      2302-3.92443E+00-3.43800E-02-2.35028E-03
 -1      2303-1.48227E-03 3.77650E-03-4.01587E-05
 -1      2304-6.67794E-04 7.53445E-03-1.18947E-05
 -1      2305-2.93334E-03 3.66615E-02 2.81888E-05
 -1      2306-1.22156E+00 6.51384E-02-1.46125E-03
 -1      2307-1.23823E+00 6.51512E-02 8.95388E-04
 -1      2308-1.04020E+00 6.20720E-02-3.76476E-04
 -1      2309-4.29274E-04 2.46016E-02-1.32123E-04
 -1      2310 1.68289E-03 2.68684E-02-1.36422E-06
 -1      2311 1.68685E-03 2.42067E-02 6.45613E-06
 -1      2312-4.63034E+00 2.62634E-02-7.96951E-04
 -1      2313-3.91181E+00-3.43032E-02-1.29718E-03
 -1      2314-2.05455E+00-3.08955E-04-2.48469E-04
 -1      2315-2.02664E+00 2.62402E-02-5.53368E-04
 -1      2316-2.06615E+00-5.27690E-04-1.54737E-03
 -1      2317-1.66380E+00-4.13348E-02 4.64075E-04
 -1      2318-1.63867E+00-1.66495E-02-6.89489E-04
 -1      2319-7.39713E+00 8.24030E-02-1.60419E-03
 -1      2320-2.25641E+00 9.12368E-03-2.23537E-04
 -1      2321-2.31483E+00-1.90413E-02-1.01071E-03
 -1      2322-1.84878E+00-3.46921E-02 9.40314E-04
 -1      2323 1.65270E-03 2.18866E-02-2.81713E-05
 -1      2324-1.79546E-06 4.60266E-07 6.14074E-07
 -1      2325-2.82194E-06 1.94755E-06-1.77406E-06
 -1      2326-3.11265E-06 5.98753E-08-2.94052E-07
 -1      2327-1.65649E-06 1.42447E-08 1.11567E-06
 -1      2328-2.39925E-03 5.61584E-02 3.62800E-05
 -1      2329-1.95648E-01 4.22796E-02-1.29334E-03
 -1      2330-3.14329E-01 2.62764E-02-2.13192E-04
 -1      2331-8.13690E-01-5.30418E-03 7.14520E-04
 -1      2332-6.50849E-01 2.62814E-02-3.64532E-04
 -1      2333-1.08798E+00 2.62756E-02-3.78866E-04
 -1      2334-1.08822E+00 2.61897E-02-3.70630E-04
 -1      2335-1.23823E+00-1.16880E-02-1.67926E-03
 -1      2336-1.05606E+00-8.82354E-03-5.37310E-04
 -1      2337-2.92550E-03 3.57431E-02 3.46203E-05
 -1      2338-3.91180E+00 8.67492E-02-1.89306E-04
 -1      2339-3.20976E+00 2.62062E-02-6.92466E-04
 -1      2340-7.38529E+00-6.26953E-02-1.68322E-03
 -1      2341-7.00676E+00 1.01574E-02-7.87322E-04
 -1      2342-7.68323E+00-4.66993E-02-1.40174E-04
 -1      2343-1.99750E-01 1.00420E-02-1.34939E-03
 -1      2344-5.15192E+00 9.27341E-02 3.43237E-04
 -1      2345-3.36085E-06 1.41867E-06-1.16624E-06
 -1      2346-3.95731E-06 5.87748E-07-7.75637E-07
 -1      2347-1.81718E+00 8.86097E-02-1.89023E-03
 -1      2348-1.83655E+00 8.85556E-02 1.27492E-03
 -1      2349-2.22194E+00 4.52585E-02-9.20198E-04
 -1      2350-1.63867E+00 6.91299E-02-2.89850E-04
 -1      2351-2.83554E+00 1.01084E-01 1.31957E-03
 -1      2352-2.79864E+00 1.00957E-01-1.76387E-03
 -1      2353-3.92443E+00 8.67397E-02 8.62453E-04
 -1      2354-5.37407E-06-3.67021E-07 5.66640E-08
 -1      2355-2.38583E-06 2.72711E-06-1.71119E-06
 -1      2356-7.89544E+00-2.88971E-02-1.67738E-03
 -1      2357-7.24057E+00 6.95216E-02-7.99157E-04
 -1      2358-7.08675E+00 1.23036E-01-1.67000E-03
 -1      2359-6.73747E+00 3.49729E-02-9.47564E-04
 -1      2360-1.22157E+00-1.15176E-02 6.00999E-04
 -1      2361-1.58807E+00 2.67437E-02-4.65330E-04
 -1      2362-1.57080E+00 2.69148E-02-4.93253E-04
 -1      2363-1.67482E+00-4.16536E-02-3.13647E-03
 -1      2364-2.64112E+00-5.57475E-02-3.47516E-03
 -1      2365-2.61310E+00-5.53522E-02 7.07069E-05
 -1      2366-2.83686E+00-4.67946E-02 5.75456E-04
 -1      2367-4.62228E-06-1.70926E-08-3.79720E-07
 -1      2368-2.87579E+00-4.71039E-02-2.47515E-03
 -1      2369-2.83541E+00-6.79958E-03-1.52508E-03
 -1      2370-4.58727E+00 2.61614E-02-7.77154E-04
 -1      2371-2.83674E+00 6.14401E-02-1.22406E-03
 -1      2372-2.49407E+00 2.81989E-02-6.02305E-04
 -1      2373-2.24191E+00 4.51136E-02-6.91952E-05
 -1      2374-2.27875E+00 1.75696E-02-6.85244E-04
 -3
    1PSTEP                         2           1           1          
  100CL  101 1.000000000        2374                     0    1           1
 -4  STRESS      6    1
 -5  SXX         1    4    1    1
 -5  SYY         1    4    2    2
 -5  SZZ         1    4    3    3
 -5  SXY         1    4    1    2
 -5  SYZ         1    4    2    3
 -5  SZX         1    4    3    1
 -1         1 3.35286E-01-1.18302E-02-5.46384E-02 7.75800E-03 1.13092E-02 6.24677E-02
 -1         2-2.61876E-01-9.71980E-02-2.52962E-02-7.97331E-02 3.20180E-03-1.21399E-01
 -1         3-7.08095E-02-6.15500E-02 2.27764E-02 7.57760E-02-2.71909E-02 1.75228E-02
 -1         4 5.29406E-01 4.12552E-01-1.26818E-02 1.03107E-01-9.56021E-02-1.54219E-01
 -1         5 4.96537E-01 8.73725E-03-1.01764E-02 2.94142E-02 5.26939E-02-1.51680E-01
 -1         6-3.85297E-01-2.25424E-01-9.19647E-02 1.99736E-02-3.81236E-02 1.63076E-01
 -1         7-3.40300E-02-2.91479E-02 4.16777E-02 6.14028E-02 2.37679E-02-1.28632E-02
 -1         8 4.30947E-01 2.79466E-01-4.18438E-02 1.29276E-02 1.14878E-01 1.12722E-01
 -1         9 5.27028E-01 8.48423E-02 1.19080E-01 6.18010E-02 1.60051E-02 4.51620E-02
 -1        10 6.42180E-01 9.19724E-02 1.08754E-01 1.82538E-02 4.62456E-04 1.57143E-03
 -1        11-3.92768E-02-8.02259E-02 2.42855E-02 1.45451E-01 5.78827E-02 5.64929E-02
 -1        12-9.25194E-02-6.08113E-02 4.89799E-02 1.83247E-01-8.90925E-02-5.68617E-02
 -1        13 1.66763E-01 3.56077E-02 3.33013E-02 7.23135E-02-2.83466E-02-1.00708E-03
 -1        14 1.56874E-01 2.38407E-02-1.35305E-02 2.35149E-02 5.98556E-03 1.99232E-02
 -1        15 3.29668E-02 2.96349E-02-3.20551E-02 4.47623E-02-3.66096E-04-1.81994E-02
 -1        16 2.04709E-02 2.10076E-03 7.15346E-03 2.00145E-02-2.78052E-02 1.05259E-02
 -1        17 2.05100E+00 7.28045E+00 1.49798E+00 5.16401E+00-5.41936E+00-2.55378E+00
 -1        18-2.52301E+00-6.64550E+00-1.76450E+00 3.81473E+00 4.92951E+00-2.18830E+00
 -1        19-2.51872E+00-8.52655E+00-2.00019E+00 5.10535E+00-4.72679E+00 2.48796E+00
 -1        20 2.94954E+00 7.65687E+00 2.17488E+00 3.90511E+00 4.50475E+00 2.15030E+00
 -1        21 5.78793E-01 5.07072E-01 5.01958E-02-1.74011E-02-6.29901E-02-1.16701E-01
 -1        22-4.78361E-01-1.53364E-01-7.11833E-02-6.96973E-02 1.74003E-02-7.71029E-02
 -1        23 4.56566E-01 4.77050E-02 3.67730E-02-6.11311E-02 2.58713E-02 5.86551E-02
 -1        24-6.63105E+00 3.51477E+01 3.61449E+00-9.49784E+00 3.71923E+00-4.03538E-01
 -1        25 9.72708E+00-2.25486E+01-4.00924E-01-3.88152E+00-2.18844E+00 2.42720E+00
 -1        26-8.51392E-02-7.37449E-02 4.82535E-03 4.28576E-02-1.87453E-02 1.43067E-02
 -1        27 5.29982E+00-2.88390E+01-4.94434E+00-9.26265E+00 1.55747E+00 5.38711E-01
 -1        28-5.62227E+00 1.44445E+01 3.26932E+00-2.82652E+00-1.75260E+00-2.17514E+00
 -1        29-8.67233E-02-8.15972E-02-1.05366E-02 4.65097E-02 3.11026E-02-1.56504E-02
 -1        30 6.29181E-01 4.57320E-01 7.42403E-02 2.93141E-02 1.08650E-01 9.32207E-02
 -1        31 4.55928E-01 2.59274E-02 1.89963E-02-3.92333E-02 7.37082E-03-8.04800E-02
 -1        32-4.10762E-01-2.34995E-01-5.69465E-02-6.63785E-02-2.37045E-02 8.05540E-02
 -1        33 5.78989E-01 1.58607E-01 1.67613E-01 7.71206E-02 1.75108E-02 2.58025E-03
 -1        34 7.17877E-01 1.58167E-01 1.90695E-01 3.75444E-03 4.88321E-03-1.85011E-02
 -1        35-1.02106E-01-9.30713E-02 9.69312E-02 1.72192E-01 4.18980E-02 2.77565E-02
 -1        36-7.32707E-02-8.70562E-02 1.62269E-01 1.41688E-01-5.27539E-02-3.34877E-02
 -1        37 1.89186E-01 2.57318E-02 4.49726E-02 8.54029E-02-1.88877E-02 8.93115E-03
 -1        38 1.93922E-01 5.00971E-02 3.73917E-02 3.44821E-02 8.75769E-03-1.44164E-02
 -1        39 1.54625E-02 2.50801E-02-8.80678E-02 2.98046E-02-9.36826E-03-1.06663E-02
 -1        40 6.86805E-03-9.27513E-03-3.28055E-02 2.17936E-02-2.56130E-02 6.67902E-03
 -1        41-2.14943E-01-8.53887E-03 1.54051E-02 3.35728E-02-9.28198E-03-3.06397E-02
 -1        42-3.62547E-01-2.66671E-02 2.62156E-02 3.58157E-02 6.33816E-03-2.82086E-02
 -1        43-5.05115E-01-6.05961E-02 5.58349E-02 4.15780E-02 3.17878E-03-2.85800E-02
 -1        44-6.16072E-01-1.17686E-01 7.52694E-02 2.95751E-02 2.25871E-02-2.49379E-02
 -1        45-6.36325E-01-2.26119E-01 1.29325E-01-9.41910E-02 8.03027E-02 4.87048E-02
 -1        46-7.16051E-01-1.21512E+00-1.51650E-02 3.50611E-01 4.43046E-01-6.52606E-01
 -1        47 1.72393E+00-2.52482E+00 1.17478E+00-4.30624E+00 6.76963E-01 2.22296E+00
 -1        48 1.63158E+00 1.66948E+00-6.26865E-01-4.09193E-02-1.23368E+00-1.91168E-01
 -1        49 1.02909E+00-3.13402E-01-4.12631E-01 3.12812E-01 1.21423E-01-2.03147E-01
 -1        50 1.00853E+00 1.95433E-02-9.33283E-02 3.71919E-02-3.95944E-02-5.40309E-02
 -1        51 9.42073E-01 2.37815E-02-8.64535E-02 3.37733E-02-7.40898E-03-2.16243E-02
 -1        52 8.69043E-01 7.87470E-02-7.24096E-02 3.04405E-02 1.16593E-02-2.16280E-02
 -1        53 7.50232E-01 5.62960E-02-2.00446E-02 4.63246E-02 1.01262E-03-3.33649E-02
 -1        54 5.95113E-01 1.07955E-02-9.98463E-03 4.91952E-02-3.69974E-02-2.58957E-02
 -1        55-1.72803E-01-1.43349E-02 3.71394E-03 3.46748E-02-1.09091E-02 3.26863E-02
 -1        56-2.67867E-01-4.38975E-02 3.88802E-02 3.17661E-02-1.75157E-02 2.79068E-02
 -1        57-4.15586E-01-1.50809E-02 5.96673E-02 2.51557E-02 3.94544E-04 2.36851E-02
 -1        58-5.30019E-01-4.87745E-02 7.33857E-02 3.88239E-02-1.24002E-02 2.63497E-02
 -1        59-6.32214E-01-7.76019E-02 1.17430E-01 3.83976E-02-1.97467E-03 2.37253E-02
 -1        60-8.38808E-01 3.14898E-01 3.41961E-01-2.21758E-03 2.45832E-02 2.58960E-01
 -1        61-7.35193E-01-4.60145E+00-6.02770E-02 4.00412E-01-1.50449E+00 3.41384E-01
 -1        62 1.72701E+00-6.22207E+00-5.70537E-01-4.54775E+00-1.31485E+00-2.10604E+00
 -1        63 9.72430E-01 3.88922E+00-1.77431E-01 6.71720E-01 2.04009E+00-2.07580E-01
 -1        64 1.32398E+00 8.22425E-01 7.70267E-02 5.77155E-01 4.44064E-01 5.48735E-01
 -1        65 1.15609E+00 1.70193E-01-1.09569E-01-2.18376E-02-1.34043E-03 1.17485E-02
 -1        66 1.00152E+00 1.21661E-01-7.17367E-02 2.17664E-02-2.37840E-03 1.43383E-02
 -1        67 8.61273E-01 4.34426E-02-6.67082E-02 1.30693E-02-3.24203E-03 1.59720E-02
 -1        68 7.43151E-01 6.51326E-02-4.96812E-02 2.58035E-02 9.40525E-03 2.58372E-02
 -1        69 6.42360E-01 8.13716E-02 1.78337E-03 3.79816E-02 2.87877E-02 3.22781E-02
 -1        70-6.20586E-02-3.49257E-02-3.96464E-02 1.18084E-02-5.75245E-03-2.76651E-02
 -1        71 1.27399E-03-3.33498E-03 4.06003E-03 6.39159E-03-5.16962E-03 3.57983E-03
 -1        72 1.01814E-02 2.59245E-03 2.03367E-03-7.45882E-05 3.08126E-04-6.43869E-04
 -1        73-7.29080E-04-4.04758E-03-6.73612E-04-1.50718E-03-8.14104E-05 3.47402E-04
 -1        74 1.93113E-03-2.09226E-02-1.09040E-04-1.95446E-04 4.31745E-04-2.62750E-03
 -1        75 4.41398E-02-7.90391E-02 4.06404E-02-1.21081E-02 4.99852E-02 3.64269E-02
 -1        76 1.18599E-02 2.86667E-03-8.65580E-04-4.34986E-03 7.13304E-03 2.12349E-02
 -1        77 3.21993E-03-7.42356E-03 6.24421E-03 3.77298E-03 9.70634E-03 8.84550E-04
 -1        78 1.84587E-03-1.31805E-04-1.34080E-03-7.24719E-04 7.95210E-04 2.06662E-03
 -1        79 1.34408E-03-2.85626E-03-7.70967E-04-2.13727E-04-1.13927E-03 4.77932E-04
 -1        80 2.36385E-02-1.24100E-02 1.31164E-03 3.26148E-03-2.50524E-04 5.97178E-03
 -1        81-6.10594E-02-1.01606E-01-2.71652E-03-7.95645E-02-4.78758E-02-3.82655E-02
 -1        82-5.22172E-01 2.95061E-02 7.66579E-03 1.08560E-02-2.76218E-02-3.25803E-02
 -1        83-3.40169E-01-2.39512E-02-1.01193E-02-7.30649E-02-2.14195E-02-4.38138E-02
 -1        84-4.77102E-02 4.11344E-03-2.11348E-03-4.40737E-02-1.00898E-02-2.60728E-02
 -1        85 1.13059E-01 2.07753E-02 6.49523E-03-5.17701E-03 4.14361E-03-1.25002E-02
 -1        86 1.82201E-01 1.66177E-02-1.77478E-02-3.88456E-02-1.87468E-02-3.64669E-02
 -1        87 4.11943E-01 2.10516E-02-8.93828E-03-6.98116E-02 7.28751E-05-4.36299E-02
 -1        88 7.36214E-01 1.62809E-02-4.79255E-04-5.92218E-02 3.26839E-02-2.23775E-02
 -1        89-5.29390E-01-4.92861E-02-6.22725E-03-6.27463E-02 1.83809E-02 3.92188E-02
 -1        90-3.30727E-01-8.15381E-03 9.13918E-03-4.37566E-02-3.35511E-03 4.26053E-02
 -1        91-6.97984E-02 1.48146E-02 1.40134E-02-3.52579E-02 3.40205E-03 4.47359E-02
 -1        92 6.07524E-02-1.98796E-02-1.26960E-02-1.42537E-02 3.02169E-02 1.54119E-02
 -1        93 1.33211E-01-6.47082E-02-2.91269E-02-5.27315E-03 7.45876E-03 1.49388E-02
 -1        94 3.11294E-01-3.89345E-02-1.55717E-02-4.02828E-02 2.02676E-02 5.82373E-02
 -1        95 5.77945E-01 4.10434E-02 5.20983E-03-6.28881E-02-4.46033E-03 6.24415E-02
 -1        96 7.31863E-01-7.54981E-02-4.56868E-02 5.43667E-03-5.18638E-02 3.97783E-02
 -1        97-8.78843E-02 5.39971E-01-4.01281E-02-4.13536E-02-6.04462E-02 4.28730E-02
 -1        98 3.99806E-02 1.62726E-01-2.33155E-02-5.15918E-02-6.30493E-02 4.43220E-03
 -1        99-7.39060E-02-7.59860E-02-2.46281E-02-1.69317E-02-2.61184E-02-1.18987E-03
 -1       100-1.36228E-03-1.61337E-01-1.37348E-02-1.11186E-02-1.14842E-02-1.82088E-02
 -1       101-1.49113E-02-2.06878E-01-1.22107E-02-4.22568E-03-4.55048E-03-4.86667E-03
 -1       102 1.09434E-02-1.61836E-01 3.34392E-03 1.10527E-02 2.45971E-02-6.80439E-03
 -1       103 2.87121E-02 5.49703E-01-7.14980E-03-1.07364E-01 7.03208E-02-3.90352E-02
 -1       104 2.84984E-02 1.12718E-01-2.63545E-02-1.01003E-01 4.80711E-02-5.10525E-03
 -1       105 7.06025E-03-8.57851E-02-9.02698E-03-1.89487E-02 1.70378E-02 5.60532E-03
 -1       106 7.98918E-03-1.61403E-01 3.56358E-03-6.80202E-03 8.15848E-03-3.55070E-03
 -1       107-2.36295E-04-2.02772E-01-4.84677E-03-2.11442E-03-3.29575E-03 1.88557E-03
 -1       108-1.17845E-02-1.82641E-01-6.18485E-03 3.49166E-02-2.63228E-02 1.82431E-02
 -1       109 8.93966E-01-2.23235E-02 2.38721E-02 8.52476E-02 3.01790E-02-7.48714E-02
 -1       110 8.96486E-01 5.64608E-03 1.71056E-02-4.39826E-02-1.09265E-02 2.14563E-02
 -1       111 6.63180E-01 1.38517E-02 1.86413E-02-3.00204E-02-7.78646E-03 3.58601E-02
 -1       112 3.74415E-01-2.17105E-02 1.67784E-03-3.82065E-02 2.53068E-03 2.60253E-02
 -1       113 1.78572E-01-8.67990E-03-8.95627E-03-1.87971E-02 9.76295E-03 1.95564E-02
 -1       114 2.84513E-02 3.90412E-03-8.40293E-04-3.42311E-02-5.49252E-03 2.30755E-02
 -1       115-3.01199E-01 2.75874E-02-1.82641E-02-6.65371E-02-5.50818E-03 4.19772E-02
 -1       116-5.44277E-01 1.33394E-02-2.42188E-02-7.13205E-02 9.12033E-03 4.70600E-02
 -1       117-5.51816E-01 5.94438E-02-9.06671E-02 1.50542E-01-1.61137E-02-1.27362E-01
 -1       118 9.43738E-01-3.09246E-02 1.54798E-02 1.03213E-01-8.57422E-03 6.14980E-02
 -1       119 8.71275E-01-2.20598E-02 2.97350E-03-7.05899E-02 2.93347E-03-3.53399E-02
 -1       120 5.58760E-01-1.80631E-04-3.75848E-04-7.84550E-02 8.97132E-03-4.68871E-02
 -1       121 2.79108E-01 9.95852E-03 1.03495E-03-1.58321E-02-4.30834E-03-2.35708E-02
 -1       122 1.71674E-01 2.27676E-03 3.35557E-03 6.70121E-03-6.89971E-03-1.32093E-02
 -1       123-4.68358E-03-4.83918E-03-1.38135E-02-2.37605E-02-1.00134E-02-4.17406E-02
 -1       124-2.94678E-01 3.27327E-03-2.53314E-02-5.04807E-02-1.04005E-02-6.40218E-02
 -1       125-5.14703E-01 1.30671E-02-1.48769E-02-5.48499E-02 7.65791E-03-4.15342E-02
 -1       126-5.16157E-01 1.24538E-01-4.75558E-02 1.66316E-01 3.89268E-02 1.33789E-01
 -1       127 1.70134E-01-3.25500E-02 1.36418E-02 7.76229E-02 2.65396E-03-5.12608E-02
 -1       128 3.07935E-01-2.55208E-02 3.60796E-02 4.02173E-02 1.02998E-02-3.15576E-02
 -1       129 4.49426E-01-3.93874E-02 4.18820E-02 2.37621E-02 1.95094E-02-2.27280E-02
 -1       130 6.09211E-01-8.62098E-02 5.58165E-02 3.53322E-02 6.38545E-03-2.27337E-02
 -1       131 7.49038E-01-1.15523E-01 1.25404E-01 2.18502E-02 2.38667E-02-2.08236E-02
 -1       132 8.85673E-01-1.39223E-01 1.93753E-01 5.34845E-02 2.22743E-02-3.83938E-02
 -1       133 9.91341E-01-5.02281E-02 6.19919E-01-1.06450E-01-2.25616E-01 2.14496E-01
 -1       134-2.00078E-01 5.89165E-02 5.37321E-02-4.49170E-01-2.12264E-03 3.66896E-01
 -1       135-5.65855E-01 1.98804E-01-3.11085E-02 3.30757E-02 1.09155E-01 1.51673E-02
 -1       136-5.50858E-01 1.11563E-01-5.75648E-02 4.20995E-02 6.28915E-03-2.04481E-02
 -1       137-4.21583E-01 9.48949E-02-1.12943E-01 2.94355E-02 9.04008E-03-1.51299E-02
 -1       138-2.65691E-01 8.13164E-02-8.69736E-02 2.59890E-02 5.61141E-03-1.06026E-02
 -1       139-9.10085E-02 5.49622E-02-9.15282E-02 4.36218E-02 1.84052E-02-2.44906E-02
 -1       140 8.96659E-02 5.82397E-02-3.84850E-02 3.26949E-02-4.36281E-02-3.29201E-02
 -1       141 2.06059E-01 3.47781E-02-1.16957E-02 3.82953E-03-1.13738E-02-1.19553E-02
 -1       142 2.04051E-02 6.30155E-03-2.11238E-02-6.97509E-03-3.74293E-03 2.34361E-03
 -1       143 3.64242E-03-1.49298E-03-5.46060E-03 3.46857E-03-9.11640E-04 3.90623E-03
 -1       144 6.62541E-03 1.54735E-03-1.48344E-03 3.07191E-04-1.55801E-04 7.13012E-04
 -1       145 1.53112E-03 4.13917E-04-3.67088E-04-4.99284E-04 9.63134E-04-3.08686E-04
 -1       146 4.65473E-03 5.18333E-04 3.09946E-03-3.72649E-03 4.43109E-03-3.24148E-03
 -1       147-3.94863E-02-1.97506E-02 2.35892E-03-3.38584E-02 1.62929E-02 2.58280E-03
 -1       148-1.25975E-01-2.96658E-03-8.50566E-03-6.76714E-03 8.30399E-04 2.03496E-02
 -1       149 9.65400E-02-5.64276E-01-5.53108E-02 3.83885E-02 2.73037E-02 1.81175E-02
 -1       150-5.03597E-03-2.15605E-01-4.51224E-03-1.09768E-01-6.38344E-02 4.16183E-03
 -1       151-4.64644E-05 1.23631E-01 2.81457E-03-2.71465E-02-2.70527E-02 4.28273E-03
 -1       152 5.58125E-03 1.97617E-01-5.38751E-03-8.39197E-03-1.39356E-02-3.16343E-03
 -1       153 6.67828E-03 2.50075E-01 1.32880E-03-9.01962E-04 1.04059E-03 6.99553E-03
 -1       154 4.75868E-03 2.52317E-01 8.60408E-03 1.18317E-02 1.29440E-02 4.99927E-03
 -1       155-1.30420E-02 1.78244E-01 1.81550E-02 8.00442E-02 4.90562E-02 5.34190E-04
 -1       156 1.82215E-01-1.79926E-02 1.22322E-02 2.83579E-02-7.55917E-03 3.20092E-02
 -1       157 3.16831E-01 8.57445E-03 3.25177E-02 3.84248E-02-2.10085E-03 3.26369E-02
 -1       158 4.26726E-01-3.23802E-02 2.67355E-02 3.45714E-02 1.71563E-02 2.48186E-02
 -1       159 6.11526E-01-6.79535E-02 3.95189E-02 4.21707E-02 1.25977E-02 2.33030E-02
 -1       160 7.58033E-01-8.26518E-02 5.74215E-02 2.91037E-02 1.37535E-02 2.62664E-02
 -1       161 7.93259E-01-4.44502E-02 1.51069E-01 2.88322E-02-3.92978E-02-2.19332E-02
 -1       162 7.48662E-01-3.00927E-01 3.08334E-01-5.59166E-01 7.90684E-02-1.75303E-01
 -1       163-6.14719E-01 4.51686E-01-2.67150E-01-4.00528E-01-1.76913E-01-2.11073E-01
 -1       164-6.22106E-01 6.52004E-02-9.12551E-02 1.26319E-01-3.93930E-03 5.40389E-02
 -1       165-4.83196E-01 9.07455E-02-9.52919E-02 2.82737E-02 3.80621E-03 3.22506E-02
 -1       166-3.63601E-01 6.05118E-02-7.86208E-02 2.61556E-02-9.64511E-03 2.61809E-02
 -1       167-2.25317E-01 4.89643E-02-7.17511E-02 2.29887E-02-4.41181E-03 2.63674E-02
 -1       168-6.58358E-02 6.70751E-02-6.33503E-02 2.98806E-02-2.12749E-02 3.20548E-02
 -1       169 7.11599E-02 3.39301E-02-5.04088E-04 1.02871E-01-4.51379E-03 7.86799E-02
 -1       170 1.42547E-01 2.34191E-02-1.82361E-02-9.14512E-03-1.23568E-03 2.70368E-02
 -1       171 1.65840E-02 7.03518E-03-8.98306E-03-6.60883E-03 2.36215E-03-5.81266E-03
 -1       172 2.74436E-03-7.89759E-04-4.12639E-03 1.49232E-03 6.07146E-04-2.39480E-03
 -1       173 5.03683E-03 1.21117E-03-7.12221E-04-4.43381E-04-4.22326E-04-3.09235E-04
 -1       174 7.22206E-03 1.74546E-03 5.35607E-03-7.58599E-03-4.44047E-03 1.72179E-03
 -1       175-1.70887E-02-7.72007E-03 8.14293E-03-3.79798E-02-1.78804E-02 5.32817E-03
 -1       176-1.80489E-01 1.21434E-02 5.68514E-03-2.42253E-02-2.77257E-02-2.83512E-02
 -1       177 1.03041E-01-5.51561E-01-8.16101E-02 6.23703E-02-8.05708E-02-4.01890E-02
 -1       178-8.01212E-04-3.21722E-01-3.39151E-02-9.78986E-02 7.55911E-02 8.35249E-03
 -1       179-2.28483E-02 1.51301E-02-2.45991E-02-6.66563E-02 5.97576E-02 9.81561E-03
 -1       180 1.02949E-02 1.90885E-01 4.47503E-03 5.90439E-03 1.17427E-02 3.48137E-03
 -1       181 1.81944E-02 2.41661E-01 1.11309E-02-7.96352E-03 1.42207E-02 3.86022E-04
 -1       182-6.29324E-03 2.52708E-01 5.18216E-03 9.37946E-03-5.55967E-03 1.65737E-03
 -1       183-1.46475E-02 1.70621E-01 1.23080E-02 3.22292E-02-3.58641E-02 4.60701E-03
 -1       184 7.82923E-01 5.37848E+00-6.42466E-01-1.39182E+00-2.85648E+00-1.37133E+00
 -1       185 3.87033E+00 1.01297E+01 1.72597E+00 3.80325E-01 3.45143E+00 1.31312E+00
 -1       186-4.51649E+00-1.07889E+01-4.33597E+00 9.60363E-01-3.83191E+00 6.77727E-01
 -1       187-1.72947E+00-7.83729E+00-3.22248E-01-2.98508E-02 3.05437E+00 2.96458E-01
 -1       188 1.69466E+00-1.15859E+02-1.67728E+01-3.59710E-01 7.07825E+00-8.81306E-01
 -1       189-1.29466E-01-1.02610E+02-1.08538E+01 5.35826E-01 1.02200E+00 9.85861E-01
 -1       190-5.61367E-01-8.45090E+01-6.90275E+00 7.67269E-01-1.06139E+00 8.72155E-01
 -1       191-6.02631E-01-6.58668E+01-1.92846E+00 1.50316E+00-1.16071E+00-1.16528E-01
 -1       192 1.20323E+00-3.19546E+01 3.57913E+00 1.75212E+00 6.11157E-01-6.32036E-03
 -1       193 2.65792E+00-2.37874E+01 3.43709E+00-1.13837E-01 2.70615E-02-7.18316E-01
 -1       194-2.88057E-02-1.34473E+01-4.64327E-01 5.13247E-01-4.33093E+00-1.36369E+00
 -1       195 2.26300E-01-1.13486E+02-1.53473E+01-7.53331E-01-7.02363E+00-4.08192E+00
 -1       196-6.48289E-01-9.98166E+01-8.88022E+00 9.39507E-01-8.92010E-01-7.12139E-01
 -1       197-6.31056E-01-7.75221E+01-4.87377E+00 1.30208E+00-8.16050E-01-6.90765E-01
 -1       198-5.07428E-01-5.80110E+01-1.21679E+00 2.32455E-01-1.63648E-02 3.68341E-01
 -1       199 2.11963E-02-3.97784E+01-3.97292E-01 1.46284E+00 2.08446E+00 1.08858E-01
 -1       200 7.14427E-01-2.12760E+01 4.16950E+00 9.97292E-02 1.42270E+00 3.27868E-01
 -1       201 1.65745E-01-9.24450E+00 4.65667E-01 9.65346E-01 5.33158E+00 5.78570E-01
 -1       202 7.06609E-01-3.81395E+01-1.02791E+01 1.56736E-01 1.15043E+00-3.01502E-01
 -1       203-2.74319E+00-6.22663E+01-1.57255E+01 3.66087E+00-3.09303E+00 2.11558E-01
 -1       204-1.60642E+00 1.14241E+02 1.59269E+01-1.07752E+00 7.41272E+00 9.64156E-01
 -1       205-1.76976E-01 1.01816E+02 9.85558E+00 2.45393E-01 1.15140E+00-1.75636E+00
 -1       206 3.49035E-01 8.33957E+01 6.15145E+00 2.37181E-01 5.72661E-01-6.07664E-01
 -1       207 7.03766E-01 6.10163E+01 2.16710E+00 6.29348E-01 2.08479E-01-9.38542E-02
 -1       208-1.65573E-01 3.48040E+01-1.18245E+00 3.17112E+00-1.74960E+00-2.59653E-01
 -1       209 9.19941E-01 2.23661E+01-3.45476E+00 1.15435E+00-2.09673E+00 1.77830E-01
 -1       210 6.53850E-01 1.05728E+01-2.56381E+00-2.06960E-01-3.72586E+00 1.26329E+00
 -1       211-3.08027E-01 1.13822E+02 1.62104E+01-1.07498E+00-6.84645E+00 4.29470E+00
 -1       212 2.53311E-01 9.95294E+01 8.94822E+00 1.08793E-01 3.52247E-01 1.83446E+00
 -1       213 4.03769E-01 7.73130E+01 4.88075E+00 1.80288E+00 1.20792E+00 7.34618E-01
 -1       214 4.67109E-01 6.66504E+01 2.05541E+00 6.45457E-01 1.22136E+00 5.80843E-03
 -1       215-1.44490E+00 3.16645E+01-3.80769E+00 1.01820E+00-5.45644E-01 1.10114E-02
 -1       216 9.17276E-02 2.23929E+01-2.65693E+00-7.09104E-02 2.33355E-01-1.24510E-01
 -1       217-1.19546E-01 1.31608E+01 1.34933E+00 8.96724E-01 4.61363E+00-3.50134E-01
 -1       218 1.53084E-01 4.83454E+01 1.27501E+01-1.85409E+00 4.01809E-01-6.95574E-01
 -1       219-1.78196E-02 6.02673E+01 1.47281E+01 1.44217E+00-2.07344E+00-1.71341E-01
 -1       220-2.92797E-01 7.83738E-03-3.38635E-02 2.25456E-02-4.36842E-03 1.65399E-02
 -1       221-4.05635E-01-3.10490E-03-4.12037E-02 2.17126E-02-2.01886E-02 1.03591E-02
 -1       222-5.61042E-01 2.29762E-02-5.14548E-02 2.09645E-02-1.08075E-02 1.94646E-02
 -1       223-7.21212E-01 2.23581E-02-1.13865E-01 1.81034E-02-2.38414E-02 1.88810E-02
 -1       224-8.72064E-01 6.16653E-02-1.67563E-01 1.81895E-02-2.79831E-02-1.18583E-02
 -1       225-8.21914E-01 1.00536E+00 1.23298E-01 1.13500E-01 2.25239E-01 5.53909E-03
 -1       226-6.26265E-01 3.26115E+00 3.08258E-01 5.69330E-03-6.18062E-01-1.48490E-01
 -1       227-7.90411E-01 2.31663E+00 5.58844E-01-2.35145E-01 7.09591E-01-1.87091E-01
 -1       228-4.16150E-01 2.82245E-01-2.51645E-02-2.98222E-01-8.68510E-02 1.66494E-01
 -1       229-8.03910E-01 7.16390E-02-9.89722E-02 5.13702E-03 2.05630E-03 2.22061E-03
 -1       230-6.71527E-01 8.45582E-02-4.88479E-02 1.99508E-02-1.74180E-02-9.06432E-03
 -1       231-4.93295E-01 4.55838E-02-4.22364E-02 1.46993E-02-7.37202E-03-1.27126E-02
 -1       232-3.07987E-01 3.29247E-02-2.47377E-02 1.88425E-02-1.51598E-02-1.08703E-02
 -1       233 1.45929E+00 7.67067E-02 1.59694E-01-5.89372E-01 4.62513E-01 2.48560E-01
 -1       234 1.17946E+00-8.43938E-01 1.71390E-01-1.57118E-02-6.64764E-03 1.23351E-02
 -1       235 1.17882E+00-1.89224E-01 4.31190E-02-2.41859E-03 5.79808E-03-5.41466E-03
 -1       236 1.06104E+00-5.22112E-02 9.15406E-02-8.01769E-03 1.11479E-02-1.20564E-03
 -1       237 8.97308E-01-3.92111E-02 7.31034E-02 2.91112E-02 1.42029E-02 1.14281E-02
 -1       238 7.47804E-01 2.29394E-02 8.91337E-02 1.16780E-02 3.91807E-02 3.20164E-02
 -1       239 6.90619E-01-6.31525E-02 7.84908E-02 3.56865E-02-3.74656E-02-2.81921E-02
 -1       240 8.73577E-01-7.49596E-02 6.33458E-02 2.75117E-02-9.61663E-03-2.07213E-02
 -1       241 1.03033E+00-3.59207E-02 5.46822E-02 3.15711E-02 7.55327E-03-1.60699E-02
 -1       242 1.14433E+00-6.59238E-02 1.03810E-01 2.01308E-02 6.23441E-04-6.30123E-03
 -1       243 1.22289E+00-9.79823E-02 1.24390E-01 1.12525E-02-4.07378E-02-4.19491E-02
 -1       244 1.33312E+00 5.57007E-02 2.01561E-01-9.59880E-03-2.88444E-03 4.53459E-02
 -1       245 1.78291E+00-1.57818E-01 4.74999E-01 3.38807E-02-5.27272E-01 2.88219E-01
 -1       246 1.21290E+00-2.74006E-01-4.78817E-01 3.22208E-01-6.82587E-01-2.57079E-01
 -1       247-2.82415E-02 6.13616E-01 4.84397E-02-7.80803E-02 2.01270E-02-4.14048E-04
 -1       248-1.42608E-02 1.07645E-01 4.49758E-03-5.71806E-02 2.90145E-02-2.19721E-03
 -1       249-2.57546E-03-1.20130E-01 4.63392E-03-2.24531E-02 1.59737E-02 2.83104E-03
 -1       250 2.86694E-03-2.09638E-01 1.37170E-03-1.11763E-02 9.01452E-03-2.73691E-05
 -1       251 3.02780E-03-2.57649E-01-4.78352E-03-2.94507E-03-2.14793E-03 6.57847E-03
 -1       252-1.72452E-03-2.34156E-01-2.17123E-02 2.08169E-02-2.82978E-02 7.72008E-03
 -1       253 3.80110E-03-2.49301E-01-1.37042E-02 7.40162E-03 8.26959E-03-8.32049E-03
 -1       254 4.86292E-03-2.42383E-01-3.41593E-03-1.11067E-02-2.89741E-04 1.42051E-03
 -1       255 2.38684E-02-1.52712E-01 9.47695E-03 7.33817E-03 5.29926E-03 6.52734E-03
 -1       256 3.86088E-02 5.22540E-02 2.46183E-02-2.47986E-02 1.09366E-03-7.99874E-03
 -1       257-6.13674E-02 5.81933E-01 2.87997E-02-1.11631E-01-2.45950E-02-1.14250E-02
 -1       258-6.70836E-01-4.79877E-03-1.38210E-02-5.25089E-02 4.85032E-03 2.89978E-02
 -1       259-3.85523E-01 6.41755E-02-2.47723E-03-6.64060E-02 1.32995E-02 3.57026E-02
 -1       260-5.59441E-02-1.09234E-02-1.66417E-02-2.89377E-02-9.27566E-03 1.32818E-02
 -1       261 1.00649E-01 1.90908E-02 1.03795E-02 6.39853E-03-1.88177E-02-7.40337E-03
 -1       262 2.45572E-01 6.58612E-02 2.26541E-02-1.35364E-02-5.59799E-03-6.30179E-03
 -1       263 5.39195E-01 1.30364E-02 2.70093E-02-2.94614E-02-2.58993E-02 1.92094E-02
 -1       264 8.73981E-01 1.73955E-02 5.17539E-02-5.33126E-02-1.99868E-02 1.06086E-02
 -1       265 8.27658E-01-4.95513E-02 2.65094E-02-2.80833E-02 9.94756E-03 8.90588E-05
 -1       266 4.38860E-01-4.88046E-02 1.72856E-02-3.46049E-02 1.34674E-02-1.48656E-02
 -1       267 1.74534E-01-2.12359E-02-7.03406E-03-2.92884E-02-1.92918E-03-2.05019E-02
 -1       268 9.59970E-02 5.00549E-03 5.97298E-03-4.89119E-03 1.00878E-03-1.32305E-02
 -1       269-7.13160E-02 1.35353E-02-1.41334E-03-3.29377E-02 2.18790E-03-1.20985E-02
 -1       270-4.23089E-01-8.26002E-03-2.17127E-02-4.29526E-02 6.30347E-04-2.67466E-02
 -1       271-6.90387E-01-1.93158E-02-3.64242E-02-5.14007E-02 4.43458E-03-2.32179E-02
 -1       272-1.51872E-02-1.53633E-02 1.56309E-02 4.99958E-03 1.60399E-02 9.70285E-03
 -1       273-6.39920E-03-8.51044E-03 7.51322E-03 5.08518E-03 4.52016E-03 6.08682E-04
 -1       274 1.71764E-03 9.10597E-04 2.35179E-03-2.29052E-04 3.44246E-04 1.55280E-03
 -1       275 8.70500E-05-3.69063E-03-2.50319E-03-1.53883E-04 7.27763E-05-6.28473E-04
 -1       276 1.16320E-02-1.33863E-02-3.69098E-03 2.38937E-03 3.80933E-03 7.68380E-04
 -1       277-2.17340E-02-7.86749E-02 1.45940E-03-2.67050E-02-1.20324E-02-4.50725E-03
 -1       278-3.11065E-02-5.05390E-02 1.06745E-03-3.80228E-02 1.14065E-02-4.61128E-03
 -1       279 2.41291E-02-8.56793E-03 1.61270E-03 2.06221E-03 8.50239E-04-8.27953E-04
 -1       280 2.71087E-03-6.59001E-04 1.37791E-03 5.23714E-04 2.61358E-04-6.70487E-04
 -1       281-1.47393E-02-5.52464E-03 3.44228E-03 2.59495E-03-9.46045E-04-2.10417E-03
 -1       282-3.70380E-02-2.24726E-02 8.34634E-03 9.51229E-03-1.49617E-02 1.47052E-03
 -1       283 1.08672E+00-3.49802E-02-1.25124E-02 6.75058E-02 1.04111E-02-1.36957E-02
 -1       284 1.03454E+00 1.92323E-02 3.85981E-03-4.99552E-02-8.16610E-03 1.25505E-02
 -1       285 7.25460E-01 8.43251E-03 5.66029E-03-3.91634E-02-1.83924E-02 1.80397E-02
 -1       286 3.75824E-01-3.79101E-03 2.36374E-03-1.83472E-02-7.42121E-04 1.05018E-02
 -1       287 1.91772E-01-1.41340E-02-7.02495E-03-6.11952E-03 6.76144E-03 1.52375E-02
 -1       288 1.29273E-02 3.92447E-03 2.48333E-03-2.02830E-02-1.57591E-03 1.86700E-02
 -1       289-3.40534E-01 1.61942E-02 1.25298E-02-4.33730E-02 7.86366E-04 3.19140E-02
 -1       290-6.57338E-01-8.61199E-03 1.81545E-02-4.03596E-02 5.52852E-04 2.94869E-02
 -1       291-7.33879E-01 1.09900E-02-3.34750E-02 9.53761E-02 2.05504E-02-6.91374E-02
 -1       292 1.06105E+00-2.81633E-02-3.00042E-02 5.03558E-02-6.86408E-03 2.58560E-02
 -1       293 1.04307E+00-6.20476E-03 2.63093E-03-3.68506E-02 2.94661E-03-2.66603E-02
 -1       294 6.62029E-01 3.63775E-03 6.65855E-03-5.29207E-02 4.12138E-03-4.24627E-02
 -1       295 2.95371E-01-7.06495E-04-4.97944E-03-2.01863E-02 6.21540E-03-1.33801E-02
 -1       296 1.54409E-01-7.19615E-03-1.17949E-03 1.16783E-02 2.11326E-03 1.04818E-02
 -1       297-9.35493E-02-1.73301E-02 5.17440E-03-3.19408E-02 3.80587E-03-4.42013E-04
 -1       298-4.77077E-01-2.48087E-02-5.82657E-03-5.97408E-02-7.61111E-03-2.34514E-02
 -1       299-7.55133E-01-6.94879E-02-7.62459E-04-3.33095E-02 2.49907E-03-1.44564E-02
 -1       300-4.74082E-01 9.19152E-02-2.70342E-03 4.78945E-02-4.45050E-03 1.11164E-01
 -1       301 1.58855E-01-1.30201E-02-5.10450E-03 3.01648E-02 2.41260E-03-3.97620E-02
 -1       302 3.14688E-01 1.86735E-02-8.34919E-03 1.89909E-02 2.55877E-03-1.76754E-02
 -1       303 5.13076E-01 2.47299E-02-1.52889E-02 3.00102E-02 2.00055E-02-1.22599E-02
 -1       304 7.41702E-01 5.24405E-02-3.35027E-02 4.32526E-02-3.05874E-03-1.94512E-02
 -1       305 9.27661E-01 1.06431E-01-4.40676E-02 5.49861E-02-1.43831E-02-2.88289E-02
 -1       306 1.08079E+00 2.73015E-01-1.02546E-02 1.32673E-01-5.99827E-02-8.33725E-02
 -1       307 1.38861E+00 7.74340E-02 2.13582E-01-7.92166E-02-2.21494E-01 1.63346E-01
 -1       308-3.02352E-01 1.74552E-01-1.60605E-02-6.15951E-01-5.82713E-02 5.22041E-01
 -1       309-1.07420E+00-1.67718E-01-2.48022E-01 1.42988E-01 1.23280E-01-1.77559E-02
 -1       310-7.44984E-01-8.88935E-02 1.59113E-01 3.96172E-02-2.60315E-03-1.22734E-02
 -1       311-5.85337E-01-7.55502E-02 5.84986E-02 2.13303E-02 3.37844E-03-1.66426E-02
 -1       312-3.87958E-01-6.07818E-02 7.34348E-02 1.46102E-02-9.95478E-04-1.44829E-02
 -1       313-1.64754E-01-4.52353E-02 5.45724E-02 2.31283E-02 1.85113E-02-2.90261E-02
 -1       314 4.42529E-02-5.91805E-02-1.15347E-02 7.94285E-02-2.84374E-02-3.91416E-02
 -1       315 3.05309E-02-6.80863E-01-1.13286E-02 6.14787E-02 5.42117E-02-9.55015E-03
 -1       316-3.04290E-02-3.25746E-01 2.23060E-02-7.72399E-02-5.73778E-02 1.19986E-03
 -1       317-5.25142E-04 1.45243E-01 1.14490E-02-1.07157E-02-2.18070E-02 9.28318E-03
 -1       318 6.72100E-03 2.45958E-01 5.29426E-03-7.64363E-03-1.05428E-02 1.25325E-03
 -1       319-2.54204E-03 3.02992E-01 5.87586E-03-4.71949E-03-8.12414E-04 4.43220E-03
 -1       320-4.87928E-04 2.99473E-01-2.01076E-03 5.10864E-03 1.07687E-02 4.11772E-03
 -1       321-1.51623E-02 1.78187E-01 2.54244E-02 4.05266E-02 4.91950E-02 1.49917E-02
 -1       322 1.82835E-01 3.48639E-02-6.59421E-07-4.71012E-03 2.14014E-05 4.60198E-03
 -1       323 1.15943E-03 2.47939E-03-7.32541E-03-7.66964E-04-1.84267E-03 1.14841E-02
 -1       324 7.02105E-03 1.81638E-03-9.59181E-04 8.08368E-04-1.94210E-04 3.29869E-03
 -1       325 7.06361E-03 1.98259E-03-6.19326E-05-4.12226E-05-2.16460E-05 1.45991E-03
 -1       326 4.97497E-03 1.91154E-03 1.04557E-03-3.76224E-03 6.77270E-04-7.01398E-04
 -1       327 2.71845E-03-4.35025E-03 1.43629E-03-2.84261E-02 1.75793E-03-1.10109E-02
 -1       328-1.26840E-01-8.98381E-03-7.38157E-03-2.48185E-02 2.04172E-02 1.23767E-02
 -1       329 2.34910E-01 1.82496E-02-1.56574E-02 4.88368E-02-5.48600E-03 2.40991E-02
 -1       330 4.08836E-01 4.04034E-02-3.09143E-02 2.63071E-02-3.98554E-03 2.65007E-02
 -1       331 5.58667E-01 6.26135E-02-3.53876E-02 2.39505E-02 1.48535E-02 1.48057E-02
 -1       332 7.89578E-01 7.89830E-02-5.10125E-02 3.07404E-02 5.38522E-03 1.94902E-02
 -1       333 9.33949E-01 8.22756E-02-1.41635E-01 2.54719E-02 2.04517E-03 1.78232E-02
 -1       334 1.08868E+00 2.34114E-01-1.49448E-03 3.40835E-02 1.08909E-01-5.26343E-02
 -1       335 1.10197E+00 2.48908E-02 1.56731E-01-1.80203E-01 2.22945E-01-3.19267E-01
 -1       336-9.36263E-01-5.43891E-02-3.73029E-01-4.35243E-01-1.53881E-01-3.96623E-01
 -1       337-9.68722E-01-1.87997E-01 1.07205E-01 1.37921E-01-2.40650E-02 6.23644E-02
 -1       338-6.61320E-01-5.54850E-02 1.35217E-01 2.85093E-02-6.51125E-03 2.59481E-02
 -1       339-5.54186E-01-7.64770E-02 5.18173E-02 3.43777E-02 8.86849E-03 2.42249E-02
 -1       340-3.89393E-01-6.80808E-02 3.63403E-02 3.02385E-02 1.88194E-03 2.17497E-02
 -1       341-2.04192E-01-5.44233E-02-2.55226E-04 4.11749E-02-2.04546E-02 2.06153E-02
 -1       342-1.57895E-02-6.40166E-02 2.04534E-02 6.44836E-02 8.74065E-03 3.75609E-02
 -1       343 8.59967E-02-6.55547E-01-4.54442E-02 4.83579E-02-7.38102E-02-1.69549E-03
 -1       344-3.41642E-02-4.50446E-01-4.16280E-03-1.11405E-01 6.22207E-02 4.71677E-03
 -1       345-1.40819E-02-3.20895E-02 2.11513E-02-4.90672E-02 4.55123E-02-9.10417E-03
 -1       346-1.22685E-03 2.09676E-01 6.84613E-03 1.15708E-02-8.12028E-03-1.68689E-02
 -1       347 3.77453E-03 2.77029E-01 7.04108E-03-9.30436E-04 3.77468E-03-7.46321E-03
 -1       348-3.17150E-03 3.16423E-01 8.03966E-03 2.45273E-03-3.87067E-05-1.43000E-03
 -1       349-9.73302E-03 2.14508E-01-3.73471E-05 5.15644E-02-2.12187E-02 5.49255E-03
 -1       350 1.61655E-01 4.94317E-02 1.24515E-02-1.23822E-02-3.30290E-03-9.45376E-03
 -1       351 4.38677E-03 2.08844E-03-7.27218E-03-3.36457E-03 1.02169E-03-9.43230E-03
 -1       352 5.12863E-03 8.54762E-04-2.01504E-03 1.06264E-03 2.51463E-04-2.54442E-03
 -1       353 4.62870E-03 1.48379E-03 2.69135E-04-1.45045E-04-1.62197E-04-1.14268E-03
 -1       354 4.08336E-03 1.40931E-03 1.54786E-03-2.78975E-03-7.65300E-04 9.96565E-04
 -1       355-1.15448E-02-6.81297E-03 1.80068E-03-2.35849E-02-5.63429E-03 1.09560E-02
 -1       356-2.25185E-01-3.37276E-02-4.68304E-02 6.81289E-03-1.20241E-02-1.40863E-02
 -1       357-6.14256E+00 4.51420E+00-2.72700E+00 1.26769E+00 1.38210E-01-1.58448E-01
 -1       358 7.98729E+00 6.26673E-01 5.91927E+00 1.96465E+00 2.61740E-01 5.02379E-01
 -1       359-1.56081E-02-8.66867E-03-8.17785E-03 2.16894E-04 5.19335E-05-2.94246E-04
 -1       360 8.07086E-02-1.94947E+00 1.87810E-01-1.25161E+00 1.84969E-01-1.11360E-01
 -1       361 2.33714E-01 5.82167E-01 2.67286E-01-2.13460E+00 3.10201E-02-9.90767E-02
 -1       362 5.88157E-01 2.49008E+00 8.70512E-02-5.15259E-01-5.73810E-02-9.97403E-02
 -1       363-4.47672E-01-6.98426E-01-4.10478E-01 5.77263E-03 1.36499E-01-2.32199E-01
 -1       364-1.92739E-01 1.43684E+00 5.74401E-02-1.59676E+00 5.40877E-01 9.36738E-02
 -1       365-6.70542E-01-1.11869E+02-1.90985E+01-1.94582E-01 2.09480E+00-3.63471E-02
 -1       366 2.61931E-01-9.51133E+01-9.09344E+00-1.70103E+00-4.90240E-01 2.23652E-01
 -1       367-2.44215E+00-8.51481E+00 4.09877E+00 2.11518E-01 1.03571E+00-3.91060E-01
 -1       368 9.31104E-01 1.07243E+02 1.48863E+01 1.09793E+00 2.06621E+00 3.33628E-02
 -1       369 2.99715E-01 9.52696E+01 9.72821E+00-1.49662E+00 6.97671E-01-7.48717E-01
 -1       370-1.39176E+00 1.37375E+01-6.02297E+00-8.73015E-01-9.46647E-01 1.64197E+00
 -1       371-1.35856E+00 1.68694E+01-4.66923E+00-4.68356E-01 4.78904E-01-1.14519E+00
 -1       372 1.77473E-01-3.22267E-01-1.06568E+00-8.12571E-01-5.79135E-01-3.52427E+00
 -1       373-1.06830E+00-3.19382E-01-3.05657E-01-1.22573E+00-1.19302E-01 6.68956E-01
 -1       374 4.78008E-01-9.13553E-01 2.90530E-01 1.18897E+00 7.06864E-02-1.63008E+00
 -1       375-2.29076E-01-3.74664E-01-1.44039E-01-8.18117E-01-1.21891E-01-7.20735E-01
 -1       376-4.47202E-01 4.77820E-01-5.73591E-03 7.96244E-01-1.18107E-01-1.05737E+00
 -1       377-2.07324E+00-1.03799E+00-2.37256E+00 5.80561E-01 3.55488E-01-9.69521E-02
 -1       378-1.22537E-01 2.79631E-02 1.31662E+00-7.26180E-01-6.08084E-01 3.25578E+00
 -1       379-6.05426E-01-1.51251E-01-2.89814E-01-1.29709E+00-4.30788E-02-1.46685E+00
 -1       380-4.14100E-01 5.31391E-01-9.74505E-01 1.68413E+00 7.15884E-02 2.69569E+00
 -1       381 7.85881E-01 4.63520E-01 3.30735E-01-4.38668E-01 1.59111E-02 5.81904E-01
 -1       382-3.25853E-02 9.97766E-02 3.17216E-02-8.11131E-01-4.99291E-02-8.58307E-01
 -1       383 1.56133E+00 2.34669E+00 1.66329E+00-2.23251E-01 2.09169E-01 8.89667E-02
 -1       384 1.20650E+00-1.64863E+00-1.78611E-01-1.46323E+00 2.63236E-02-2.26675E-01
 -1       385-8.80887E-01 1.83484E+00 3.93132E-01-1.17190E+00 1.18464E-01-3.32875E-01
 -1       386 1.68576E-01-2.54705E-01-4.75278E-01 4.61355E-01-9.65027E-02 2.14237E-01
 -1       387-6.97552E-01 4.99596E-01 1.12968E+00-3.46437E+00-5.89755E-02 2.25070E-01
 -1       388 3.72678E-01-1.25300E-01 2.17032E-02 2.95051E-01 7.57011E-02-6.17420E-02
 -1       389 7.40571E-02 7.03061E-01-3.13930E-01-6.42411E-02 2.53424E-01-9.26966E-02
 -1       390-2.36817E+00 5.62296E-01-8.74977E-01-6.14382E-01 9.37616E-01-1.56462E-01
 -1       391 9.66399E-01-2.22536E+00-2.43696E-02-9.00732E-01 2.79945E-02 2.95258E-01
 -1       392-1.68638E-01-8.85210E-02-6.26319E-02 4.86676E-01-2.29635E-01 1.07120E-01
 -1       393 9.59887E-01-3.73795E-01-7.45951E-03-2.75378E+00 3.19343E-02 2.54592E-01
 -1       394-5.14033E-01-1.23362E+00-2.16937E-01 1.86872E+00 2.73294E-02-5.31508E-02
 -1       395-1.15113E+00 2.52306E+01 8.24098E-01-1.65429E-01 3.50014E-01-2.08718E-01
 -1       396 5.57246E-01 4.15287E+01 2.26573E+00-3.52157E-01 4.10312E-01 7.25977E-02
 -1       397 1.92309E+00-5.11705E+00 1.64532E+00 7.21513E-01 2.26757E-01 6.42376E-01
 -1       398-4.56311E-01-2.82045E+01-1.78178E+00-3.20843E-01-4.56487E-01-1.02519E-01
 -1       399-2.08961E-01 8.12436E-02 5.27371E-02-2.29293E+00-1.96873E-02 1.96244E+00
 -1       400 6.71086E-01 5.54682E+00-7.30592E-01 6.10640E-01-2.10179E-01-1.03202E-01
 -1       401 8.07484E-01-7.37538E+00 2.11733E+00-2.15378E-01 5.31332E-01-6.40445E-01
 -1       402-1.20457E-02 9.81821E-03 8.21543E-02 1.83371E-02 4.47400E-04-1.40395E-03
 -1       403 2.31228E-01-5.92739E-02-1.24949E-01-5.77350E-02 1.78022E-02-2.57852E-02
 -1       404-1.29045E-01-3.24790E-02 3.84141E-02 5.18623E-02-5.37715E-03-2.73888E-02
 -1       405-2.66809E-01-8.50193E-03 5.28400E-02 4.32534E-02-2.78914E-03-2.27078E-02
 -1       406-3.97882E-01-2.27939E-02 8.53372E-02 4.42367E-02 1.51898E-02-1.98249E-02
 -1       407-5.41936E-01-8.28205E-02 1.08228E-01 4.85460E-02 2.28097E-02-2.70586E-02
 -1       408-6.64738E-01-1.98696E-01 1.32558E-01 3.58661E-02 5.93396E-02-1.75376E-02
 -1       409-9.37190E-01-4.44073E-01-1.67939E-01 3.97859E-01 4.83235E-01-3.49000E-01
 -1       410-3.62725E-01-2.73803E+00-5.12885E-01-7.26083E-01 1.54431E+00 1.37734E-01
 -1       411-1.77258E+00-3.96009E+00-1.55773E+00-2.34371E+00-2.34217E+00 1.39331E+00
 -1       412 7.19552E-01-1.38462E-01-7.69519E-01 3.30333E-01-3.29166E-01-2.74540E-01
 -1       413 1.00527E+00-1.74649E-01-2.04499E-01 7.75935E-02-4.38905E-02-5.32743E-02
 -1       414 1.00208E+00 7.39263E-02-5.96939E-02 4.84236E-02-2.14203E-02-4.48130E-02
 -1       415 8.59164E-01-8.45409E-02-1.39857E-01 2.40696E-02-7.56743E-04-1.58178E-02
 -1       416 8.07513E-01 5.68396E-02-7.57721E-02 4.14800E-02-1.50296E-02-2.75962E-02
 -1       417 6.73426E-01 5.48528E-02-2.96720E-02 5.17977E-02-3.19551E-02-3.91001E-02
 -1       418 5.02400E-01-4.92024E-03-5.37223E-02 8.62308E-02 1.97142E-02-7.69375E-02
 -1       419-1.17717E-01-3.79050E-02 2.16959E-02 5.08783E-02-1.46157E-02 1.96096E-02
 -1       420-2.56007E-01-5.52386E-02 3.52109E-03 4.66093E-02-2.62454E-02 2.80285E-02
 -1       421-3.59521E-01-1.95357E-02 4.00732E-02 3.84123E-02-1.18008E-02 2.51435E-02
 -1       422-4.70267E-01-4.10471E-02 8.25153E-02 5.25346E-02 7.36720E-03 3.11617E-02
 -1       423-5.84616E-01-8.98363E-02 8.50345E-02 5.89033E-02-3.44337E-03 2.21068E-03
 -1       424-6.18880E-01-1.20527E-01 1.03732E-01 1.80575E-02-9.55326E-03-3.16698E-02
 -1       425-5.64197E-01-2.85951E-01 1.29123E+00 4.70009E-01-8.85081E-01 7.19170E-01
 -1       426-2.89794E-01-3.59076E+00-6.93427E-01-6.36811E-01-2.28188E+00-3.49388E-01
 -1       427-3.35443E+00-4.50782E+00-2.72040E+00-3.77096E+00 1.87663E+00-1.59941E+00
 -1       428 2.17716E+00 3.38474E+00 9.51607E-01 4.01980E-01 2.16883E+00 4.12950E-01
 -1       429 1.39108E+00 6.76251E-01 8.84220E-02 2.20434E-01 1.84182E-01 2.41892E-01
 -1       430 9.97560E-01 3.51325E-02-1.65461E-01 3.08898E-02 1.71408E-02 6.97800E-03
 -1       431 9.08258E-01 5.48919E-02-7.19593E-02 4.11504E-02-9.66543E-03 1.42368E-02
 -1       432 7.91466E-01 4.72241E-02-6.97604E-02 2.92350E-02-1.88988E-03 1.79653E-02
 -1       433 6.92163E-01 7.44474E-02-1.86103E-02 5.75060E-02-9.46890E-03 3.24772E-02
 -1       434 5.39905E-01 7.32395E-02 1.21626E-02 6.00094E-02 5.12813E-02 4.09615E-02
 -1       435-2.14429E-01-1.04943E-01-1.03650E-02-1.26752E-01-2.32604E-02 2.86328E-03
 -1       436 2.29277E-01 1.20393E-04-3.80543E-03-4.16660E-02 2.47023E-02-8.79652E-02
 -1       437-3.02324E-03-9.21875E-03 2.88937E-03 6.30237E-03-7.80887E-03-1.33914E-02
 -1       438-5.22333E-03-3.97234E-03-5.04272E-04 1.43434E-03 6.53924E-06-4.79011E-03
 -1       439 2.62833E-03-1.67594E-03-3.97142E-04-7.74108E-04 7.10653E-04 1.14955E-03
 -1       440 1.22485E-02-8.74222E-03 4.77332E-03-1.14301E-03-1.27941E-03 5.91935E-03
 -1       441-4.56959E-02-5.12344E-02-8.98194E-04-1.76109E-02 1.10960E-02 1.12624E-03
 -1       442-1.04317E-01-1.39340E-01 7.60677E-03-1.01947E-01 9.04368E-02 1.00301E-01
 -1       443 1.90684E-01 3.09479E-02 5.06636E-03-6.38998E-02-1.83085E-02 3.27738E-02
 -1       444 1.80172E-02-1.32983E-03 1.49666E-02 9.23897E-03 1.97458E-02 1.07958E-02
 -1       445 4.22586E-03-2.14729E-03-2.11864E-04 1.09906E-03 1.58039E-03 2.83803E-03
 -1       446 2.10431E-03-1.19150E-03-1.34951E-03-3.72451E-04-1.21256E-04 7.02782E-04
 -1       447 9.91959E-03-6.20885E-03 1.36635E-03 7.47853E-04-1.90178E-04 2.96032E-03
 -1       448-6.11306E-04-4.45431E-02 6.23338E-03-2.20154E-02-4.29509E-03 1.89435E-03
 -1       449-2.12303E-01-1.25532E-01-1.32400E-02-1.11155E-01-5.99197E-02-4.91432E-02
 -1       450 2.39337E-01 1.32775E-01-2.00335E-01-1.58754E-01-2.52792E-02 3.22721E-02
 -1       451-4.35950E-01-8.68287E-02-1.29653E-02 4.35157E-02-8.14818E-02 1.25347E-02
 -1       452-4.32612E-01-2.99719E-02-1.29256E-02-6.41422E-02-8.33732E-03-3.32946E-02
 -1       453-2.01231E-01-5.15951E-02-3.11539E-02-6.17852E-02-7.77658E-03-3.26849E-02
 -1       454 2.90858E-02-4.41910E-02-2.63543E-02-2.76280E-02 8.69700E-03-1.68492E-02
 -1       455 1.43114E-01 2.05063E-03-3.25901E-03-1.79909E-02-9.55260E-03-1.30202E-02
 -1       456 2.94449E-01-4.61379E-03-1.09662E-02-5.31179E-02-2.02240E-02-2.43207E-02
 -1       457 5.96742E-01 4.17396E-02 1.28648E-02-6.96075E-02 4.60091E-03-2.54842E-02
 -1       458 6.83697E-01 2.32216E-01 2.51545E-03-2.16060E-02 4.38683E-02 1.44921E-02
 -1       459-4.37491E-01-1.15946E-01-1.57363E-02-3.18477E-02 4.02190E-02-5.67527E-04
 -1       460-4.27615E-01-3.02377E-02 9.59702E-03-6.82336E-02-3.06110E-03 3.88656E-02
 -1       461-2.44559E-01-3.22302E-02-1.80247E-02-6.12502E-02 1.04691E-03 4.73023E-02
 -1       462-3.39019E-02-8.98970E-02-4.30348E-02-2.51197E-02-2.63940E-02 1.80603E-02
 -1       463 1.01631E-01-2.10237E-02-1.41880E-02-7.88387E-03-9.75850E-03 7.34744E-03
 -1       464 2.53631E-01 1.14168E-01 4.01999E-02-2.79295E-02 2.85148E-02 2.65664E-02
 -1       465 4.53009E-01 8.38888E-02 2.44179E-02-5.96138E-02 2.33584E-03 3.84938E-02
 -1       466 6.89806E-01 7.13035E-02 2.57268E-02-7.56606E-02-5.85746E-03 2.42086E-02
 -1       467 6.10970E-01 1.76587E-01-6.00071E-02 5.84502E-02-1.00450E-01-1.18030E-03
 -1       468-2.12204E-02 3.29321E-01-1.26533E-01 1.59646E-02-3.24246E-02 1.09030E-01
 -1       469 6.53143E-02 4.08403E-01 1.19810E-02-9.02789E-02-3.86931E-02 1.43247E-03
 -1       470 6.02635E-02 5.51508E-02 2.15227E-03-3.52268E-02-1.78807E-02-5.31349E-03
 -1       471-7.18552E-03-1.15068E-01-1.03103E-02-2.04918E-02-1.73705E-02-1.01020E-02
 -1       472 1.07448E-02-1.78509E-01-5.45371E-03-1.68212E-02-1.12326E-02-2.07432E-02
 -1       473 5.91698E-03-1.91466E-01-4.72765E-03 1.10443E-02 4.59104E-03-6.25968E-03
 -1       474 2.16374E-02-8.10897E-02 3.08819E-02 3.47192E-02 3.05077E-02-1.99182E-03
 -1       475 2.81074E-01 5.00612E-01-3.02825E-02-4.52451E-02 2.60104E-02-6.44416E-02
 -1       476 1.71562E-02 3.28376E-01-1.12607E-02-1.24505E-01 4.63729E-02 7.06689E-04
 -1       477 4.19045E-03 1.00620E-02-1.65857E-02-6.34490E-02 2.35129E-02 1.25065E-02
 -1       478 2.71190E-03-1.26063E-01-3.27966E-03-1.29363E-02 9.76096E-03-1.83890E-03
 -1       479-2.93879E-03-1.84715E-01-4.32890E-03-7.46786E-03 4.07554E-03-2.24928E-03
 -1       480-1.50539E-02-1.97644E-01-1.21642E-02 2.08132E-02-2.03292E-02 1.19186E-02
 -1       481-2.03793E-02-1.15503E-01 1.70771E-02 5.07616E-02-2.62094E-02 1.50011E-02
 -1       482 4.81807E-01 3.83215E-02 1.54393E-01 1.79508E-02 6.78602E-03 9.78059E-03
 -1       483 2.70533E-02 3.81414E-03 1.14960E-01 5.42358E-02 2.99590E-02-1.24934E-02
 -1       484 8.18687E-01 7.27212E-02 7.09307E-02 3.95505E-02 3.52433E-02-7.62433E-02
 -1       485 9.28987E-01-2.97073E-02 1.77967E-02-6.73631E-03-9.76380E-03 6.31479E-03
 -1       486 8.08386E-01 1.58240E-02 2.44249E-02-2.99817E-02-3.68001E-03 1.76128E-02
 -1       487 5.41992E-01 1.38944E-02 1.04266E-02-2.24668E-02-4.44291E-04 2.03395E-02
 -1       488 2.80606E-01 2.72310E-02 9.94591E-03-2.09005E-02 8.12529E-03 5.27238E-03
 -1       489 1.27587E-01 5.99179E-03 3.46947E-03-2.24576E-02-2.53937E-03 2.35651E-02
 -1       490-1.23319E-01-1.80656E-02-1.34009E-02-5.58183E-02 1.94462E-03 3.08697E-02
 -1       491-4.19646E-01-1.13325E-02-3.35874E-02-5.94291E-02 1.28288E-02 3.49733E-02
 -1       492-5.52574E-01 5.23943E-02-3.72986E-02 2.82020E-02 1.00007E-02-6.54640E-03
 -1       493-2.59346E-01 3.38907E-02 1.05050E-02 1.35002E-01-3.37761E-02-1.22826E-01
 -1       494 8.09258E-01-1.76378E-02 3.47963E-02 9.77076E-02 8.24084E-03 9.94835E-02
 -1       495 8.92692E-01-3.71759E-02 1.02362E-02-1.00508E-02 3.72602E-03-2.51210E-03
 -1       496 7.12842E-01-4.18339E-02-6.86533E-03-8.62541E-02 2.98232E-03-4.42955E-02
 -1       497 4.22917E-01 2.55190E-02-4.05090E-04-6.26422E-02 1.05937E-02-3.50662E-02
 -1       498 2.15114E-01 3.60794E-03-2.30827E-02-8.63912E-03-9.65245E-03-8.00822E-04
 -1       499 1.06889E-01 2.11155E-02-3.35229E-03-2.32805E-02-3.37291E-03-1.49910E-02
 -1       500-1.62965E-01-2.78247E-02-3.00547E-02-3.56105E-02-4.08139E-03-3.64685E-02
 -1       501-4.49444E-01-1.89945E-02-4.12827E-02-3.82865E-02 2.27950E-03-3.64341E-02
 -1       502-5.88648E-01 4.78137E-02-5.23541E-02-6.16503E-03 1.19541E-02 4.57597E-02
 -1       503-2.09262E-01 3.86567E-02 2.24872E-02 2.31969E-01 5.26029E-03 1.69238E-01
 -1       504 9.08126E-02 5.86627E-03 7.51716E-03 6.19655E-02-3.48743E-03-3.65629E-02
 -1       505 2.40085E-01-1.95664E-03 3.93621E-02 5.64261E-02-5.24466E-03-3.43899E-02
 -1       506 3.70048E-01-5.86993E-02 1.47612E-02 2.45522E-02 1.13191E-02-1.35594E-02
 -1       507 5.02313E-01-1.02753E-01 1.84897E-02 2.59184E-02-4.48528E-03-2.37521E-02
 -1       508 6.20051E-01-2.01352E-01 1.98633E-02 2.56136E-02 1.11283E-03-1.93796E-02
 -1       509 7.17844E-01-2.92402E-01 2.92275E-02 3.90356E-02 5.23924E-04-1.70486E-02
 -1       510 9.50543E-01-2.68368E-01 3.66311E-01 2.82009E-02-1.13683E-01 2.48931E-02
 -1       511 7.17566E-01 1.33300E-01 5.13168E-01-3.65208E-01-5.27429E-02 3.30886E-01
 -1       512-7.98125E-01-1.53076E-01-4.01554E-01-2.59955E-01 1.06160E-01 2.39730E-01
 -1       513-6.44475E-01 9.81942E-02-1.47749E-01 9.52742E-02 8.29197E-02-2.56020E-02
 -1       514-4.82815E-01 1.11662E-01-1.01891E-01 4.54454E-02-2.97326E-03-2.16844E-02
 -1       515-3.46878E-01 6.93491E-02-1.00115E-01 3.09970E-02 3.53108E-03-1.00684E-02
 -1       516-1.83340E-01 5.31696E-02-8.69395E-02 4.56206E-02 3.35299E-03-2.00451E-02
 -1       517 2.13947E-04 5.72159E-02-5.08883E-02 5.42573E-02-1.16501E-03-4.10022E-02
 -1       518 1.71931E-01 2.06279E-02 2.16918E-02 7.41527E-02-3.97306E-02 5.24878E-03
 -1       519 1.56769E-01 2.90294E-02-9.66111E-03 4.25709E-02-1.88210E-02 2.35040E-03
 -1       520 1.00126E-01 2.31472E-02-1.20415E-02-1.16387E-02 1.83589E-03-4.24843E-03
 -1       521 2.00770E-03 6.94641E-04-4.92998E-03 4.47399E-03-6.54262E-04 6.92064E-03
 -1       522 6.14085E-03 8.82084E-04-2.64584E-03 1.42608E-03-7.02923E-04 1.86947E-03
 -1       523 6.90830E-03 2.09392E-03 7.80826E-04-7.91650E-04 3.72161E-04-1.82021E-04
 -1       524 1.85441E-03-7.65477E-04-5.62525E-04-1.17109E-03 1.59521E-03-1.08665E-03
 -1       525 6.75992E-05-4.57428E-03 2.54688E-03-5.94132E-03 9.97504E-03-5.75260E-03
 -1       526-1.21557E-01-2.84134E-02-3.66292E-03-5.28345E-02 2.47904E-02 1.97540E-02
 -1       527 9.59677E-02 4.59801E-02 2.38840E-02 1.60153E-02-1.37223E-02 1.78770E-02
 -1       528 7.38034E-03-3.17684E-01-1.95255E-02 1.95609E-01 1.29173E-01 2.83495E-02
 -1       529 7.73001E-02-3.95419E-01-1.41399E-02-1.00702E-01-5.22916E-02 4.88584E-03
 -1       530 3.61069E-02-9.17393E-03 3.68922E-03-8.55120E-02-5.28095E-02 1.09308E-02
 -1       531 6.01335E-03 1.73198E-01-7.28181E-04-2.13451E-02-1.89369E-02 1.51522E-03
 -1       532 1.12757E-02 2.27876E-01 1.48200E-03-8.39436E-03-6.96419E-03-1.13436E-03
 -1       533 8.04720E-03 2.56682E-01 7.21571E-03 1.01603E-03 4.44055E-03 3.69425E-03
 -1       534-8.13039E-03 2.09193E-01 4.05445E-03 4.06164E-02 2.41031E-02-1.79794E-03
 -1       535 1.61917E-02 1.03737E-01 2.34247E-02 7.38836E-02 4.35190E-02 1.76166E-03
 -1       536 9.72210E-02 1.84817E-02 2.18040E-02 4.07310E-02-1.42212E-02 3.94343E-02
 -1       537 2.50687E-01 9.65408E-03 4.02110E-02 2.64400E-02-9.52821E-03 2.08647E-02
 -1       538 3.70450E-01-5.15662E-02 1.70870E-02 3.59190E-02-8.33157E-03 2.51130E-02
 -1       539 5.24574E-01-6.27762E-02 5.59428E-02 4.46551E-02 9.26797E-03 2.16628E-02
 -1       540 6.84045E-01-9.88895E-02 7.60198E-02 4.49937E-02 2.51185E-04 2.07879E-02
 -1       541 8.27765E-01-1.31171E-01 1.51181E-01 3.46268E-02 4.98318E-03 3.34288E-03
 -1       542 9.55770E-01-1.17100E-01 3.21837E-01-6.36295E-02 5.95958E-02-1.28531E-01
 -1       543-9.28126E-02-3.15661E-01-2.93958E-01-6.38293E-01-1.11645E-01-4.65214E-01
 -1       544-7.39454E-01 2.87407E-01-2.40714E-01-2.76098E-02-8.46207E-02-6.02600E-02
 -1       545-5.50592E-01 1.12885E-01-1.23915E-01 7.49977E-02-8.76832E-04 3.62785E-02
 -1       546-4.22816E-01 7.44300E-02-1.05634E-01 2.27450E-02-7.75523E-03 1.82891E-02
 -1       547-2.89489E-01 6.43940E-02-9.23362E-02 2.08331E-02-4.94424E-03 1.53570E-02
 -1       548-1.49887E-01 2.13181E-02-8.65675E-02 2.63674E-02-2.80834E-02 1.44482E-02
 -1       549 1.17664E-02 4.74811E-02-6.33749E-02 4.78792E-02-1.60041E-02 2.86215E-02
 -1       550 1.83844E-01 4.71309E-02-1.35123E-02 9.62622E-02-8.98861E-03 9.12828E-02
 -1       551 1.36160E-01 3.50510E-02-1.92557E-02 2.42959E-02 1.08596E-02 1.41365E-02
 -1       552 8.45119E-02 2.42076E-02-3.12841E-03-1.19728E-02-6.20759E-03 4.44838E-03
 -1       553-2.14532E-03-2.41073E-03-7.77558E-03 1.60577E-03 1.32056E-03-8.30819E-03
 -1       554 5.29984E-03 1.06237E-03-1.34878E-03 4.96227E-04 3.25017E-04-1.48482E-03
 -1       555 6.34313E-03 1.69536E-03 4.14846E-04-2.92100E-03-1.17022E-03 1.40506E-03
 -1       556 3.73858E-03 4.68766E-04 6.51389E-03-1.80518E-02-8.09764E-03 5.75058E-03
 -1       557-1.09746E-01-4.58224E-02-1.22316E-02-4.30646E-02-2.29797E-02-1.25591E-02
 -1       558 7.92406E-02 3.26963E-02-1.13485E-02 3.75848E-02-2.61438E-02 7.18272E-02
 -1       559-8.12647E-03-3.18271E-01-4.07160E-02 2.12725E-01-1.79069E-01-6.15980E-03
 -1       560 1.00629E-01-4.60095E-01-4.31969E-02-6.00721E-02 1.89108E-02-1.65521E-02
 -1       561 3.86930E-02-1.57363E-01-9.52958E-03-1.19258E-01 7.01603E-02 4.88389E-03
 -1       562 1.28299E-02 1.30548E-01-8.40605E-03-4.19333E-02 2.25795E-02 1.32707E-02
 -1       563 2.68491E-02 2.19270E-01 8.00231E-03-3.73754E-03 3.40848E-03-9.38249E-03
 -1       564 1.08850E-02 2.57207E-01 3.98060E-03-2.12727E-03 4.91586E-03-4.74482E-03
 -1       565-1.04473E-02 2.09791E-01 3.24008E-03 1.77555E-02-1.26159E-02-1.17768E-03
 -1       566 1.31720E-02 8.18449E-02 1.76752E-02 3.82598E-02-4.15805E-02 1.43188E-03
 -1       567 1.13673E-01 3.02361E-02 3.41420E-02 4.59702E-03-2.53720E-02 8.83450E-03
 -1       568-2.60945E-03-1.21396E-02-5.29925E-02-3.02724E-04-1.25160E-02-7.69824E-03
 -1       569 8.48633E-01 1.83061E+00 9.98213E-01 5.43658E+00-7.28788E-01-2.80856E+00
 -1       570 2.48371E+00 6.91581E+00 1.36324E+00 1.69565E+00-5.96974E+00-1.33480E+00
 -1       571 3.65422E-01 9.78912E+00 3.49514E+00 6.76796E-01 1.29718E+00 1.19654E+00
 -1       572 2.71482E+00 7.36459E+00 1.68474E+00 1.50041E+00 4.33152E+00 1.07886E+00
 -1       573-9.46608E-01-2.09758E+00-1.05784E+00 5.51168E+00-5.99768E-01 2.72709E+00
 -1       574-3.79552E+00-9.42406E+00-3.22765E+00 1.79473E+00-4.86644E+00 1.40266E+00
 -1       575-4.88194E+00-1.16548E+01-4.61835E+00 2.43970E+00-9.48192E-01-2.28574E-01
 -1       576-2.56723E+00-6.97276E+00-1.58461E+00 1.12020E+00 4.74388E+00-1.29013E+00
 -1       577-5.10331E+00-1.18059E+02-2.97343E+01-8.16533E+00 1.04213E+01 3.02635E+00
 -1       578 3.28930E-01-1.12500E+02-1.41803E+01 7.01410E-02 4.57858E+00 7.37361E-01
 -1       579 7.06901E-01-9.52160E+01-8.72395E+00 1.19445E+00-1.08353E+00 3.75616E-01
 -1       580 7.24862E-01-7.25814E+01-3.23067E+00-4.33776E-02-1.15125E+00 2.59295E-01
 -1       581-1.00117E+00-4.57092E+01 3.66401E+00 6.45973E-01-1.64938E+00-6.31352E-01
 -1       582-1.23537E+00-2.39747E+01 3.47913E+00 2.60674E-01 6.83128E-01 5.10709E-02
 -1       583 3.66164E-01-2.15480E+01-1.24853E+00 3.56452E+00-2.52268E+00 1.40150E+00
 -1       584-8.41735E-01-9.50868E+00-1.41251E+00 3.38544E+00-5.19231E+00 1.41440E+00
 -1       585-2.94901E+00-1.14883E+02-2.45545E+01-1.93468E+00-1.19330E+01-5.54623E+00
 -1       586-3.03405E+00-1.12807E+02-1.52111E+01-5.33180E-01-4.70027E+00-5.48861E-01
 -1       587-7.76496E-01-9.31212E+01-7.33607E+00 1.59570E+00 2.10092E-01-7.54181E-01
 -1       588-1.13218E+00-7.30150E+01-4.13797E+00 2.05665E-01-7.98353E-01-4.92882E-02
 -1       589 1.34804E+00-5.01612E+01-2.76894E+00 6.24088E-01 2.56191E+00-9.48365E-01
 -1       590 5.81157E-01-2.21348E+01 4.57283E+00-6.75628E-01 1.59025E+00 6.60772E-01
 -1       591-1.50872E-01-1.81635E+01 3.10295E-01 4.99492E-01 2.90499E+00 2.14792E-01
 -1       592-9.45837E-01-9.14514E+00-2.58890E+00 1.62467E+00 6.52423E+00-3.77461E-01
 -1       593 3.62872E+00-4.33946E+01-9.68690E+00-1.50200E+00 4.48051E+00-6.39024E-01
 -1       594-5.45148E+00-6.49632E+01-2.12815E+01 1.05662E+01 6.65547E-02-1.03675E-01
 -1       595-5.99683E-01-4.73073E+01-1.12006E+01-1.87610E+00-4.00096E+00 4.31721E+00
 -1       596 4.28547E+00 1.13712E+02 2.62941E+01-7.48598E+00 1.01377E+01-3.04240E+00
 -1       597-2.88669E-01 1.12109E+02 1.40255E+01-5.03380E-02 4.54819E+00-8.86835E-01
 -1       598-4.45471E-01 9.25625E+01 6.62566E+00-8.01663E-02-1.27879E-01-7.53341E-01
 -1       599-1.21311E+00 7.15808E+01 3.11655E+00-2.08480E-02 7.24224E-01-1.08622E-01
 -1       600-1.32184E+00 5.01956E+01 2.81403E+00 7.94735E-01-2.46013E+00-7.28404E-01
 -1       601 1.14063E+00 2.31713E+01-3.78950E+00 7.67192E-02-1.54550E+00 3.73099E-01
 -1       602 2.73669E+00 1.86850E+01-1.12986E+00 1.87368E+00-3.39018E+00-9.54372E-02
 -1       603 2.27514E+00 8.39628E+00 1.81724E+00 2.76319E+00-5.43680E+00-1.69564E+00
 -1       604 8.92454E+00 1.19823E+02 3.00806E+01-3.83018E+00-1.20448E+01 7.90846E+00
 -1       605 1.71199E+00 1.12153E+02 1.42090E+01-2.06540E+00-4.49277E+00 2.49884E+00
 -1       606 1.09199E+00 9.59843E+01 8.96458E+00 1.25982E+00 1.58596E+00 1.25201E+00
 -1       607 6.86596E-01 7.33586E+01 4.07428E+00 2.87303E-02 1.23325E+00 2.98338E-01
 -1       608 4.55411E-01 4.54582E+01-3.89058E+00 6.29155E-01 1.55679E+00-6.55671E-01
 -1       609-2.16026E+00 2.24693E+01-4.86338E+00-3.59320E-01-5.51476E-01-3.10747E-01
 -1       610 6.73166E-01 2.19936E+01 3.16883E+00 8.83540E-01 3.05695E+00 6.31673E-01
 -1       611 1.15595E+00 1.11574E+01 3.24769E+00 1.32550E+00 5.80498E+00 5.20412E-01
 -1       612-1.00917E+00 3.67275E+01 7.46597E+00-1.32856E+00 3.14754E+00 5.67283E-01
 -1       613 3.88881E+00 8.00613E+01 2.50595E+01 2.56880E+00 1.30103E-01-7.33380E-01
 -1       614 3.26617E+00 3.60269E+01 1.06643E+01-1.24457E+00-3.56173E+00-2.00249E+00
 -1       615-2.85879E-01-7.56867E-01 1.33060E+00-1.58747E+01 1.12616E+00-1.29545E+00
 -1       616-1.77022E-01 1.70794E-02-9.04296E-03 2.93376E-02 1.64708E-02 1.02821E-02
 -1       617-3.30791E-01 1.88045E-02-2.79914E-02 2.88038E-02-6.61006E-03 1.15602E-02
 -1       618-5.03877E-01 2.14283E-02-6.54619E-02 2.04421E-02-3.95364E-02-5.46626E-03
 -1       619-6.49245E-01 4.88907E-02-8.49800E-02 2.46598E-02-3.33158E-02-3.43453E-03
 -1       620-8.04464E-01 5.74105E-02-1.68988E-01 7.23885E-03-4.46886E-02-2.51494E-02
 -1       621-8.14650E-01 1.24501E-01-3.49641E-01-1.22339E-01-8.41782E-02-6.57418E-02
 -1       622 2.97590E-01 2.74014E+00 4.28150E-01-3.03395E-01 4.57689E-01-7.56210E-01
 -1       623 1.26149E+00 5.51571E-01 2.75000E+00 1.28401E+00-6.05870E-01 3.43640E+00
 -1       624 1.35428E+00 7.60979E-01 2.29235E+00 9.24893E-02 4.12246E-01-2.88968E+00
 -1       625-3.41798E-01 6.22231E-01 4.51999E-02-1.72340E-02 4.01902E-01 2.18575E-01
 -1       626-7.45673E-01 2.43510E-01 2.38032E-02-1.16783E-01-5.97427E-02 8.20040E-02
 -1       627-7.26597E-01 1.12332E-01-5.43483E-02 1.11925E-02-9.38533E-03 8.75112E-03
 -1       628-5.57788E-01 8.76615E-02-2.44416E-02 2.68983E-02-1.23663E-02-1.30657E-03
 -1       629-3.76168E-01 7.70675E-02-1.57344E-02 3.14135E-02-5.45548E-03-8.04922E-03
 -1       630-2.04735E-01 1.73649E-02-3.41533E-03 3.13178E-02 1.52136E-02-1.10978E-02
 -1       631-8.76840E-02-6.01369E-02 8.94586E-03-2.81468E-02 7.40130E-04-2.29293E-03
 -1       632-1.32215E-01 2.77861E+00 4.11938E+00-1.13310E+01-2.25437E+00-5.79766E-01
 -1       633-5.55866E-01 8.60598E-01-2.48950E+00 9.86417E-01 5.83646E-01 3.86074E+00
 -1       634 9.03647E-01-1.40892E+00 2.46160E-01-1.98582E-01 6.85947E-01-1.79207E-01
 -1       635 1.34802E+00 4.19534E-02 1.14497E-01-1.85608E-02-1.99409E-02-8.22089E-03
 -1       636 1.11771E+00-1.06261E-01 6.15434E-02 2.16166E-02 4.17390E-03 7.25978E-04
 -1       637 9.47768E-01-1.34141E-01 3.77205E-02 1.98209E-02 1.91928E-02 1.40474E-02
 -1       638 7.87778E-01-9.99781E-02 3.02493E-02 3.08351E-02 3.01042E-02 2.55844E-02
 -1       639 7.63948E-01 1.35394E-01 1.23313E-01-2.69191E-02 1.03611E-01 1.83036E-02
 -1       640 3.36617E-01-4.00970E-02-3.35013E-02-7.68750E-02-2.76175E-03-3.13267E-02
 -1       641 6.74163E-01 2.33229E-02 3.97337E-02 1.56936E-02 1.47596E-02-3.59693E-02
 -1       642 7.69235E-01-1.27049E-01 5.48389E-02 3.01415E-02-3.66523E-02-2.19360E-02
 -1       643 9.41944E-01-1.21046E-01 5.11180E-02 2.25138E-02-1.25817E-02-1.61770E-02
 -1       644 1.10561E+00-8.20611E-02 1.02586E-01 2.84998E-02-7.88413E-03-4.57109E-03
 -1       645 1.20110E+00 1.20465E-02 9.18778E-02 1.20444E-02-1.09522E-03-1.58495E-02
 -1       646 1.27054E+00 1.07208E-01 1.58070E-01-2.96204E-02-1.72154E-02 2.28761E-02
 -1       647 1.25055E+00-6.79414E-01 2.66087E-01-6.76235E-02-4.91956E-01 1.80686E-01
 -1       648 1.91821E+00 4.38679E-01 3.27882E-01-2.09453E-01-6.68227E-01 2.43502E-01
 -1       649-9.92996E-01-1.34646E+00-9.95668E-01 8.10480E-01-2.97007E-01-1.67161E+00
 -1       650 2.04673E-01 7.52171E-01 5.85541E-02-3.13142E-02-3.15058E-03-4.65891E-02
 -1       651 3.94669E-03 3.75474E-01 3.58699E-02-6.77897E-02 2.77507E-02 4.28443E-04
 -1       652-2.25445E-02-1.18304E-02 3.67308E-04-4.00180E-02 2.02288E-02-5.76531E-03
 -1       653-4.68074E-03-1.66959E-01 3.74077E-03-1.53113E-02 9.49867E-03 1.20912E-03
 -1       654 3.73673E-03-2.33270E-01-2.13341E-04-5.72047E-03 1.40890E-03 4.74384E-03
 -1       655 3.33323E-04-2.54187E-01-1.12828E-02 1.60202E-02-1.53397E-02 9.34645E-03
 -1       656-3.41682E-02-2.06368E-01-1.73977E-02 3.73798E-02-3.49112E-02 8.44561E-03
 -1       657-5.59216E-03-2.02844E-01-9.43459E-03 2.58449E-02 2.60100E-02-1.16224E-02
 -1       658-3.84102E-02-2.72256E-01-2.58222E-02 1.95599E-03-1.35228E-04 9.88701E-03
 -1       659-1.66035E-02-2.05435E-01-5.57915E-03-4.81701E-03-1.96865E-03 2.81861E-03
 -1       660-6.32877E-02-9.81998E-02 3.14452E-03-1.93699E-02-1.21101E-02 1.01273E-02
 -1       661 1.23696E-01 3.37775E-01 8.24975E-02-4.77074E-02-5.92794E-02-3.40106E-02
 -1       662 1.89549E-01 7.64976E-01 6.14767E-02-7.45349E-02-2.78179E-02 6.32437E-02
 -1       663 6.41349E-01 4.89946E-01 8.45610E-02-2.49880E-01-5.82001E-03 8.49398E-03
 -1       664-7.16296E-01-4.58319E-02-3.74950E-02-4.26278E-02 3.81439E-02 2.41125E-04
 -1       665-5.56796E-01-6.64751E-02-3.58215E-02-4.48673E-02-1.45053E-02 4.42606E-02
 -1       666-2.60463E-01-1.34638E-01-7.36345E-02-3.45486E-02-2.75240E-02 5.77391E-02
 -1       667 3.58198E-02 8.82155E-03-1.26598E-02-1.96635E-02-2.26124E-04 1.68896E-02
 -1       668 1.62607E-01 2.23359E-02 1.78636E-03-8.23924E-04 1.13753E-02 1.10162E-02
 -1       669 4.49712E-01 1.67020E-01 6.45357E-02-3.41075E-02 4.22299E-02 3.14166E-02
 -1       670 7.72571E-01 1.08413E-01 6.35793E-02-7.26605E-02 4.92844E-03 1.71213E-02
 -1       671 9.79307E-01 1.71340E-01 6.69625E-02-4.98955E-02-4.42878E-02-3.63050E-02
 -1       672 9.22563E-01 1.10330E-01 4.28401E-02-3.58259E-02 2.90886E-02 1.59081E-02
 -1       673 6.73122E-01-6.13797E-03 3.30882E-02-6.24714E-02 2.04723E-02-1.10048E-02
 -1       674 3.18340E-01-3.34005E-02 3.13141E-03-4.52233E-02 1.10076E-02-1.75285E-02
 -1       675 1.50875E-01 1.15101E-02 1.32343E-02-3.98487E-03 1.17469E-04-2.08485E-02
 -1       676 5.28596E-02 4.90700E-02 1.98164E-02-1.09455E-02-1.20963E-03-8.86622E-03
 -1       677-2.31942E-01-5.65690E-03-1.39748E-02-1.96785E-02 1.07898E-02-1.23458E-02
 -1       678-5.70162E-01-4.50627E-02-4.87070E-02-2.94043E-02 1.16776E-02-1.51337E-02
 -1       679-7.69723E-01-1.30333E-01-6.90723E-02-3.27581E-02-5.16923E-02 1.40230E-02
 -1       680-4.76955E-01-2.22974E-01-8.85073E-02-1.78048E-01-1.88166E-02-2.27422E-04
 -1       681 5.95264E-02-1.18149E-02-3.14179E-02-5.99849E-03-1.09395E-03 3.35409E-02
 -1       682-6.17920E-05-6.68289E-03 1.98841E-02 1.25777E-02 1.55106E-02 1.11194E-02
 -1       683 2.18187E-04-1.74977E-03 4.57724E-03 1.27222E-03 7.36359E-04 2.32500E-03
 -1       684 1.74681E-03-1.07855E-03-6.81599E-04-1.20605E-05 1.57006E-04 3.09538E-04
 -1       685-8.39029E-03-1.49819E-02-8.23087E-03 1.08521E-03 1.12650E-03-1.26612E-03
 -1       686-2.59807E-02-4.92363E-02-1.07038E-02-3.54973E-03 3.37552E-03-3.91770E-03
 -1       687-9.44279E-02-1.55323E-01 6.97170E-04-6.08821E-02-4.90232E-02-4.41641E-02
 -1       688-5.42317E-02-1.54786E-01 2.84539E-02-1.21223E-01 4.22338E-02 6.25830E-02
 -1       689-2.01646E-03-2.72627E-02-6.92666E-03-7.60913E-03-1.13900E-03-4.95236E-03
 -1       690 1.51682E-03-4.97952E-03-8.54720E-04-5.99833E-04-2.83417E-06 7.92605E-04
 -1       691-7.09877E-04-8.29718E-04 3.22230E-03 4.29634E-04-3.07270E-04-6.61228E-04
 -1       692-1.67934E-02-9.83778E-03 1.30473E-02 7.45073E-03-7.08981E-03-6.96562E-05
 -1       693 3.01085E-02-3.04704E-02-1.58342E-02-3.11131E-02-7.88664E-03-4.05297E-02
 -1       694 6.15998E-01 1.57656E-01 2.32097E-01 2.81374E-02 1.04165E-02 2.17735E-02
 -1       695 6.06730E-03-2.39045E-02 2.27674E-01 9.42696E-02 1.04143E-02-1.89249E-02
 -1       696 8.79001E-01 2.88639E-02 2.68857E-02 7.08826E-02 2.02650E-02-4.13958E-02
 -1       697 1.13132E+00 4.71006E-03 1.83530E-02-2.02017E-02-1.07687E-02 3.85532E-03
 -1       698 9.25144E-01 9.86261E-03-6.25734E-04-5.67580E-02 1.92359E-03 1.29140E-02
 -1       699 5.96008E-01 1.57063E-02 5.90444E-03-4.91364E-02 8.01336E-03 7.14785E-03
 -1       700 2.82318E-01-1.25699E-02-3.37412E-03-1.08335E-02 5.16809E-03 9.22620E-03
 -1       701 1.15680E-01-2.63792E-02 9.98613E-04-1.79161E-02 6.82439E-03 1.85947E-02
 -1       702-1.46860E-01 1.79092E-02 9.39424E-03-3.62619E-02 6.98745E-03 2.15236E-02
 -1       703-5.14720E-01 2.18570E-03 3.60327E-03-3.20351E-02 1.12925E-02 2.30861E-02
 -1       704-7.36900E-01 1.48951E-02 9.30869E-03 4.99811E-03-2.91698E-03 6.52329E-04
 -1       705-3.83876E-01-9.33825E-02 1.76998E-02 1.79804E-01-5.01777E-04-8.47195E-02
 -1       706 8.41397E-01-1.28943E-02 5.51554E-02 8.60495E-02 3.75577E-02 7.07565E-02
 -1       707 1.09552E+00-4.66919E-03 1.20577E-02 1.33417E-02-4.33830E-03-1.22090E-02
 -1       708 8.83120E-01-4.36020E-04 9.38674E-03-6.05837E-02-1.95189E-03-2.94413E-02
 -1       709 4.71961E-01-2.03282E-02 7.92503E-03-5.51545E-02 8.53170E-03-2.62007E-02
 -1       710 2.33285E-01-5.35230E-03-4.40060E-04-1.17712E-02 7.19960E-03 2.12004E-05
 -1       711 9.92158E-02 6.53237E-03 2.34698E-02-2.61068E-02-9.47270E-04-5.39735E-04
 -1       712-2.07687E-01 2.15821E-02 2.86886E-02-6.69986E-02-5.14489E-03-2.54755E-02
 -1       713-5.76482E-01 1.15600E-02 1.88770E-02-6.02130E-02-1.00083E-03-3.17397E-02
 -1       714-8.27743E-01-7.68434E-02-6.01865E-02 8.49695E-02 9.22087E-03 4.97462E-02
 -1       715-1.94893E-01-1.33086E-02 5.56276E-02 1.56872E-01-2.08217E-02 1.23384E-01
 -1       716 7.79509E-02 1.49287E-03-3.58240E-02 3.18167E-02-1.32333E-02-2.97012E-02
 -1       717 2.61149E-01 9.26250E-03-7.41721E-03 3.00564E-02 6.43304E-03-3.00683E-02
 -1       718 4.49199E-01 2.99458E-02-6.73227E-03 3.81436E-02 1.97903E-02-1.46841E-02
 -1       719 6.52714E-01 8.94881E-02-4.18705E-03 3.80019E-02-1.23107E-02-2.60862E-02
 -1       720 8.35696E-01 1.04358E-01-2.74184E-02 4.97659E-02-1.72744E-02-3.36541E-02
 -1       721 1.03597E+00 2.25370E-01 1.06776E-02 8.21797E-02-4.28042E-02-8.00574E-02
 -1       722 1.37163E+00 1.84971E-01 1.29146E-01 1.97696E-01-1.39104E-01-9.19119E-02
 -1       723 6.98685E-01-4.38300E-02 3.93461E-02-6.01568E-01-2.74992E-02 5.09981E-01
 -1       724-1.01173E+00 1.62686E-01-1.13383E-01-2.69266E-01-6.65320E-02 2.50217E-01
 -1       725-8.84443E-01-6.71954E-02-5.03092E-02 7.74346E-02 3.41436E-02-4.09818E-02
 -1       726-6.71020E-01-1.24390E-01 1.16943E-01 5.44783E-02 9.76371E-03-2.74556E-02
 -1       727-4.82863E-01-3.86967E-02 3.45589E-02 2.40523E-02-2.14385E-03-6.30831E-03
 -1       728-2.67159E-01-1.91383E-02 3.71337E-02 3.66077E-02-4.33680E-03-1.79676E-02
 -1       729-1.02640E-01-6.97677E-02-5.54398E-02 6.54220E-02 1.20001E-02-4.58518E-02
 -1       730 1.49459E-01-3.26877E-02 1.25782E-02 7.46316E-02-3.06582E-03-3.35059E-03
 -1       731-1.31258E-01-4.03192E-01-9.56267E-03 1.68744E-01 8.32494E-02-4.82165E-03
 -1       732 1.93141E-02-5.75143E-01-8.92008E-03-6.85521E-02-3.50336E-02-1.99751E-02
 -1       733-2.05369E-03-3.62377E-02 1.63510E-02-7.97683E-02-3.35541E-02 2.03819E-04
 -1       734-1.45501E-02 2.07222E-01 1.19184E-02-2.09616E-02-1.42109E-02 2.17281E-03
 -1       735-1.50317E-02 2.72172E-01 6.65487E-03-1.02179E-02-7.25042E-03 3.36527E-04
 -1       736-4.61707E-03 3.10890E-01 1.82394E-03 4.97903E-03 2.16168E-03-7.12707E-05
 -1       737 6.07440E-03 2.56844E-01 4.82973E-03 1.50538E-02 2.10341E-02 3.91481E-04
 -1       738-8.42566E-03 9.45068E-02-1.38824E-02 3.27352E-02 3.58290E-02 1.18802E-02
 -1       739 1.79267E-01 6.84628E-02 4.89419E-02 5.31871E-02-6.61939E-03 2.46794E-02
 -1       740 9.72206E-02 3.15043E-02 7.79399E-03-1.65615E-02 3.23997E-04 1.67644E-02
 -1       741 3.58747E-03-5.01520E-05-3.75467E-03 3.67153E-03 1.02345E-05 6.14491E-03
 -1       742 8.89519E-03 2.87606E-03 6.91662E-04 8.73316E-04-1.19402E-05 2.87605E-03
 -1       743 7.92608E-03 2.33215E-03-1.52291E-04-2.19454E-03 5.14982E-04-2.08223E-04
 -1       744 3.48527E-03 1.21343E-03 5.59343E-04-1.18995E-02 3.00147E-03-3.29535E-03
 -1       745-9.86174E-02-3.41215E-02-1.51212E-02-5.47881E-02 6.17255E-03-8.32149E-03
 -1       746 1.51423E-01 5.52433E-02 3.27221E-02 4.71461E-02 4.04339E-03-2.41016E-02
 -1       747 1.01945E-01 2.39008E-02-1.87202E-02 5.71433E-02-8.84882E-03 3.70486E-02
 -1       748 3.17860E-01 2.92605E-02 1.67231E-03 4.91945E-02 1.41479E-02 1.59611E-02
 -1       749 4.77327E-01 4.55586E-02-5.11368E-02 3.02282E-02-1.53685E-03 1.71906E-02
 -1       750 6.67490E-01 3.92708E-02-6.80924E-02 4.18827E-02 1.95692E-04 2.29047E-02
 -1       751 8.68315E-01 5.66871E-02-1.14001E-01 5.57280E-02-2.93271E-03 3.45347E-02
 -1       752 9.69014E-01 6.58495E-02-1.42137E-01 8.46089E-02-4.40789E-03 2.64365E-02
 -1       753 1.38768E+00 4.47261E-02 1.94773E-01-3.26205E-03 1.58155E-01-1.14957E-01
 -1       754 1.37073E-01-3.66586E-02-1.00015E-01-6.19934E-01-6.12590E-03-6.32138E-01
 -1       755-1.30840E+00-7.91566E-03-2.35625E-01-5.38866E-02-1.06626E-01-9.16806E-02
 -1       756-7.79353E-01-4.07241E-02 6.07693E-02 1.06372E-01-1.55832E-02 5.00650E-02
 -1       757-6.17340E-01-6.36808E-02 5.62873E-02 4.07403E-02-1.13844E-02 2.79132E-02
 -1       758-4.46915E-01-3.52296E-02 4.90385E-02 4.00276E-02-1.88712E-02 1.97989E-02
 -1       759-2.65632E-01-1.41977E-02 3.19516E-02 5.03079E-02-4.77905E-02 1.89726E-02
 -1       760-8.47595E-02-2.95686E-02 1.96589E-02 4.79053E-02-5.55403E-03 2.61700E-02
 -1       761 1.39964E-01-2.07183E-02 4.44139E-02 1.06927E-01 1.78334E-02 4.95748E-02
 -1       762-7.22280E-02-3.57467E-01 4.12762E-03 1.07303E-01-1.45037E-01 4.23792E-02
 -1       763 2.61324E-02-6.56295E-01 2.27637E-03-5.47949E-02 7.18383E-03-2.48369E-02
 -1       764 4.59373E-03-1.94687E-01 6.02952E-02-1.09434E-01 1.40530E-02-1.35198E-02
 -1       765-8.89109E-03 1.49917E-01 2.12639E-02-3.65865E-02 9.37732E-03 6.85518E-03
 -1       766-1.21235E-03 2.54433E-01 7.77004E-03-8.37778E-04-4.40310E-03-5.14449E-03
 -1       767-3.50673E-03 3.12295E-01 8.40377E-03-4.20553E-03 4.64994E-03-1.83679E-03
 -1       768-6.94012E-03 2.72630E-01 6.93230E-03 2.25697E-02-7.29036E-03 1.13538E-03
 -1       769 2.32066E-02 9.03687E-02 1.17805E-03 4.52572E-02-2.94929E-02-4.49176E-03
 -1       770 1.86193E-01 6.03088E-02 1.48350E-02 2.20033E-02 1.02410E-02-4.07543E-02
 -1       771 8.18524E-02 2.51265E-02 1.90279E-03-1.36349E-02-7.27784E-04-8.18478E-03
 -1       772-6.35525E-05-1.91970E-03-6.33546E-03 2.88882E-03-1.77603E-04-5.40212E-03
 -1       773 8.19370E-03 3.10906E-03 2.16983E-03 3.78231E-04-2.67079E-04-1.24840E-03
 -1       774 4.46675E-03 1.59727E-03 8.57471E-04-9.48313E-04-5.56836E-04-5.20654E-04
 -1       775 3.28459E-03 2.06452E-03 3.59705E-03-8.05334E-03-2.98770E-03 3.35166E-03
 -1       776-1.39790E-01-4.56854E-02-1.24946E-02-4.85210E-02-3.10980E-02-1.25375E-03
 -1       777 1.59254E-01 5.69757E-02 3.06653E-02 3.55832E-02-2.86685E-03 1.02733E-02
 -1       778 1.65741E-01 3.33180E-02 5.97178E-02 1.72048E-02-1.53889E-02-3.54860E-03
 -1       779-2.00378E-02-2.81497E-02-9.96343E-02 8.43465E-03-2.27567E-02 2.13858E-03
 -1       780-8.59506E-02 2.58311E-02 5.35610E-02 2.01935E-02-3.10267E-03 6.25569E-03
 -1       781 4.35837E-01-3.76089E-02-5.59256E-02 3.56527E-02-2.36212E-02 7.23894E-03
 -1       782-1.80104E-01 4.14876E-02 4.71175E-02 5.18709E-03-5.38400E-03 5.18771E-04
 -1       783-3.47839E-01 6.01768E-02 9.46882E-02 1.24567E-02 6.32144E-04-1.63368E-03
 -1       784-4.20394E-01 1.06497E-02 1.08192E-01 3.93509E-03 1.50047E-03 3.77786E-03
 -1       785-4.48483E-01 8.51677E-02 1.57988E-01 1.15653E-02 1.77166E-04-3.14155E-03
 -1       786-5.06365E-01 2.60643E-02 1.63928E-01 5.97502E-03 7.68294E-04 6.47933E-03
 -1       787-4.97130E-01 1.21653E-01 2.48198E-01 1.48276E-02 1.56046E-03-1.92048E-02
 -1       788-5.52319E-01 6.29078E-02 2.93056E-01 2.37522E-04 2.27516E-02 2.97335E-02
 -1       789-4.89565E+00 2.71838E+00-1.57426E+00-1.33093E+00 6.69384E-01 2.51980E+00
 -1       790-1.39750E+00-1.51014E+00-2.90907E+00-2.07504E-01 1.33568E-03-8.45401E-01
 -1       791 1.24428E+00-1.08075E-01-1.77383E-01-4.59515E-02-1.18291E-02-1.91709E-02
 -1       792 1.06245E+00 1.72474E-01-1.64330E-01 3.55779E-04 2.35682E-03-1.57907E-02
 -1       793 9.16277E-01-1.11577E-01-2.19716E-01 2.17929E-02-1.66302E-02-2.15234E-02
 -1       794 9.80393E-01 1.19197E-01-9.32116E-02-1.54672E-03 7.78925E-03-1.45190E-03
 -1       795 5.60565E-01-8.20340E-02-7.44761E-02 4.98729E-02-1.85335E-02 2.19320E-02
 -1       796-6.58955E-01 3.50986E-02 2.79958E-01-9.96940E-02-7.06661E-03 6.07301E-02
 -1       797 9.99727E+00-6.90615E-01 5.44822E+00 2.83910E-01 4.17153E-01-1.90218E+00
 -1       798 2.27118E+00-4.36630E-03 2.81209E+00-9.11752E-01 2.82540E-01 1.02104E+00
 -1       799-2.28513E+00 9.07075E-01-2.17146E+00 1.64496E+00 3.46635E-01 1.58364E-01
 -1       800-6.95343E+00 1.83491E+00-2.34156E+00-2.21299E+00-5.41309E-01-2.18439E+00
 -1       801 7.11131E-01 1.67461E-02-1.20033E+00 1.60996E-01-1.03517E-01 1.98652E-01
 -1       802 9.30585E-01-3.38453E-01-4.89903E-01-3.09970E-02 3.96975E-02 7.37312E-02
 -1       803 1.05455E+00 1.17431E+00-7.99991E-01-7.09786E-01 2.26072E-01-4.64876E-01
 -1       804-3.00835E-01-5.51384E-03 6.49174E-02-3.92754E-04 3.76854E-03 6.54876E-04
 -1       805-1.03334E+00 9.45836E-01 5.41889E-01 6.87470E-02 4.00791E-02-2.41967E-01
 -1       806 7.64982E-01-2.00401E-01 1.65225E+00-3.43097E-01-2.54607E-01-6.79792E-01
 -1       807 7.99392E+00-2.85979E+00 3.68639E+00 3.09180E-01-3.38988E-01 1.44846E+00
 -1       808 9.34068E-01 1.41407E-01-1.00316E-01-1.09276E-02 2.58218E-03-9.23213E-03
 -1       809 6.48286E-01 4.04520E-02-7.25188E-02-6.43505E-03-1.92528E-02-2.42252E-03
 -1       810 2.98783E+00 4.95508E+00 3.09863E+00 1.43574E+00 2.01186E-01 2.28356E-01
 -1       811 8.12743E-01-3.84454E-02-1.51443E-01 8.47442E-03-5.89092E-04-5.07622E-04
 -1       812 7.13542E-01 1.16012E-02-9.70197E-02 4.22417E-03 1.21926E-02 3.16773E-03
 -1       813-2.08091E-01 3.33663E-02 6.46424E-02 1.37229E-02-7.27678E-03-5.58804E-03
 -1       814-1.36246E+00-3.30142E+00 6.42206E-01 1.12630E-01 2.10576E-01 7.40789E-01
 -1       815 7.62567E-01-7.44449E-03-1.20712E-01 7.07285E-03 3.17869E-03-2.91083E-03
 -1       816-1.65832E-01-1.32298E-01-1.63413E-01 4.00174E-02-1.54322E-02 6.81158E-03
 -1       817 2.16691E-01 4.04770E-02 1.56743E-01 3.65410E-02 3.65810E-04-3.70306E-02
 -1       818 1.48693E-01-5.41338E-02 8.35896E-02 5.22493E-02 8.99982E-03 1.19683E-02
 -1       819-1.22705E-02-5.67103E-02 1.50759E-03-1.16974E-02-4.78723E-03-2.93978E-03
 -1       820-9.88475E-02-5.82445E-02-5.99466E-02 2.90813E-02-1.83811E-03-4.11432E-03
 -1       821-5.71363E-03-1.90251E-02 1.88565E-04 6.28358E-03 8.52345E-04 2.48282E-03
 -1       822-2.68084E-02-3.29986E-02-1.33676E-02 4.64674E-03-7.98848E-03 3.45340E-03
 -1       823 4.53736E-02 7.07205E-03 1.50570E-02-1.08722E-03 2.36665E-04-1.57039E-03
 -1       824-9.76096E-04-9.80141E-03-1.30859E-03-1.16570E-03 1.18929E-03 3.11352E-04
 -1       825-2.32740E-03-4.35388E-03-1.01800E-03 5.90783E-04-2.62258E-04 5.77889E-04
 -1       826-4.21316E-03-5.10137E-03-3.32742E-03 1.65586E-03-7.41428E-05 1.43464E-04
 -1       827 8.26518E-03 2.02471E-03 9.04174E-04-1.26812E-04 5.87362E-04-3.40028E-04
 -1       828-1.34981E-02-7.17939E-03-7.62837E-03-1.74449E-04 2.76718E-04 6.93347E-04
 -1       829 5.97147E-03 6.04029E-04 3.73240E-05-9.15799E-04 3.93448E-04-3.76977E-04
 -1       830 3.70775E-03-8.51020E-04-7.80215E-04-1.39456E-03 1.81442E-04-1.64838E-03
 -1       831-2.24803E-02-1.21461E-02-1.09294E-02 2.59508E-04-1.67449E-04-1.27826E-03
 -1       832-3.08029E-01 1.05734E-01 4.51909E-02 5.63491E-02 3.86189E-03-1.65866E-02
 -1       833 4.31757E-01-2.29493E-01-1.50798E-01 1.00833E-01-4.04944E-03 2.17255E-02
 -1       834 6.79439E-01-1.48905E-01-5.67011E-02 8.28029E-02-1.86963E-03 9.65815E-03
 -1       835-4.82450E-01 1.00100E-01 2.85036E-02 6.80857E-02-1.40850E-03 1.26866E-03
 -1       836-4.27756E-01-5.14694E-03 4.11987E-03-1.26819E-03-5.74221E-03 6.50289E-03
 -1       837-3.15059E-01 1.73103E-02 2.62416E-02-2.91985E-03-1.11312E-03 5.18423E-03
 -1       838 5.34927E-01 1.54578E-01 4.37351E-02-4.13780E-03-1.91306E-02 3.86340E-03
 -1       839 6.66529E-01 6.74873E-02 6.80352E-03-1.42593E-02 1.01101E-02 1.06511E-02
 -1       840-2.22130E-01-1.10908E-02-4.92876E-03-1.00893E-02-3.73490E-03 5.36077E-03
 -1       841 3.09409E-01-1.60566E-01-8.23213E-02-1.94996E-02 1.59179E-02 2.71308E-04
 -1       842-2.34641E-02 8.61383E-02 4.16932E-02 7.49030E-03 8.68424E-03 1.04903E-02
 -1       843 3.58435E-01 2.95178E-01 1.05469E-01 2.95048E-03-1.29518E-02-5.09664E-03
 -1       844 1.25398E-02-9.62215E-03-3.86732E-03-1.14244E-02-5.64762E-03-9.94420E-04
 -1       845 4.17240E-02-3.12159E-01-1.39225E-01-2.56226E-02 6.84080E-03-8.80773E-03
 -1       846 2.35049E-02-1.68519E-01-6.74890E-02-3.19985E-03 1.75690E-02-4.07200E-03
 -1       847 2.03659E-01 1.80571E-01 7.25762E-02 7.93505E-03-7.69292E-04-3.02318E-03
 -1       848-3.76441E-02 3.29258E-01-1.47498E-01 8.43241E-02-7.92331E-03-1.56505E-02
 -1       849-1.70275E-03-9.50375E-02 1.82862E-02 9.30152E-03 5.26364E-03-1.53244E-03
 -1       850 1.87683E-02-1.56792E-01-8.42342E-04 6.33333E-03-4.12953E-03 5.49327E-03
 -1       851-2.10569E-01 4.54763E-01-9.72596E-02 5.15501E-02-8.92019E-03 8.66481E-03
 -1       852 2.09809E-02 3.57687E-01-1.20979E-02-3.51013E-03-6.93447E-03-2.26046E-04
 -1       853-2.19499E-02 1.22422E-01-5.75577E-02 9.41594E-03-8.80779E-03 6.31488E-03
 -1       854 3.97478E-03 2.90869E-02-1.82129E-02-1.03736E-02 4.57778E-03-3.70120E-04
 -1       855-6.79753E-04-1.97963E-01-2.26623E-03 5.19494E-03-2.00204E-03-6.54237E-06
 -1       856 2.96713E-05-1.83834E-01-2.54738E-03-8.37714E-04 5.25267E-03-8.10242E-04
 -1       857 7.16194E-02-4.03622E-02 1.70237E-02 1.46645E-02 6.89561E-04 7.74960E-03
 -1       858-7.91948E-02-2.14741E-01-3.43706E-02-4.72842E-03 2.43198E-03-2.25272E-03
 -1       859 1.02929E-01-1.19282E-01 3.60612E-02 4.24922E-03 1.81674E-03-1.23895E-03
 -1       860-1.13257E-01-1.71108E-01-5.30070E-02-1.17726E-02 3.26292E-03-1.98940E-03
 -1       861 8.53609E-01-2.78781E-04 6.90169E-02 4.66282E-03-2.12275E-02-7.18079E-03
 -1       862-2.59120E-01-2.44672E-02-4.47071E-02 1.80069E-02-2.39409E-02-8.78071E-03
 -1       863 8.89783E-01-2.10696E-02 7.03287E-03 1.20505E-02 5.38395E-03 3.86966E-03
 -1       864 9.19216E-01 9.58249E-03 3.27117E-02 1.03189E-02 7.59233E-03 6.15232E-03
 -1       865 8.05897E-01 5.66645E-02 3.18585E-02 6.17588E-03 1.37789E-02 1.38802E-03
 -1       866 8.81746E-01-1.65222E-02 1.00798E-02-1.01976E-02-6.60826E-03-4.59876E-03
 -1       867-5.14628E-01 2.60360E-02-4.94555E-02 4.27402E-02-2.25162E-03-4.18538E-02
 -1       868-5.26827E-01 3.09002E-02-3.42859E-02-2.14662E-02-1.15321E-03 5.21056E-04
 -1       869-5.02072E-01 1.31928E-02-1.08505E-01 5.63038E-02 1.41200E-02 5.14292E-03
 -1       870 6.00955E-01-2.73913E-02-7.87588E-03 8.52844E-04-8.91602E-03-6.36002E-03
 -1       871-4.42628E-01-5.27500E-03-3.95498E-02 2.25470E-04 1.54145E-03-3.87704E-03
 -1       872 5.08411E-01 4.48998E-02 2.36827E-02 4.45659E-03 7.81048E-03-4.51147E-04
 -1       873-2.77547E-01 4.67271E-02-9.54495E-03 2.99327E-03-6.92878E-03-7.14507E-03
 -1       874 3.23599E-01-1.89132E-02 1.47002E-03 4.38852E-03-2.35260E-02-3.50584E-03
 -1       875-1.59700E-01-1.24014E-02-2.32139E-02-9.51570E-03 1.86167E-03 5.17393E-03
 -1       876 2.85223E-02 1.46800E-02-3.04125E-03 5.30367E-04-1.65960E-02 1.17293E-03
 -1       877 2.13016E-01-6.35626E-02-2.13826E-02-1.40932E-03 1.68578E-02-1.12281E-03
 -1       878 9.83086E-02-2.31172E-02-1.33075E-02 2.64259E-03 2.93075E-03 5.80372E-03
 -1       879 1.94897E-01 2.98482E-02 1.06602E-02 4.83031E-03-7.66216E-03 6.67447E-03
 -1       880 4.23121E-02-6.27619E-02 6.17930E-04 9.54092E-02-1.84504E-03 3.03822E-03
 -1       881-8.32090E-03-1.36544E-02-1.26938E-02 8.51517E-02-1.22293E-02 7.61047E-03
 -1       882 3.67199E-02-4.30791E-02-8.85382E-03 5.71309E-02-2.18686E-03 4.83293E-03
 -1       883 1.51041E-02-4.37815E-02-1.11616E-02 5.53154E-02-8.41942E-03-7.64370E-03
 -1       884 6.25413E-02-1.88408E-01-7.06090E-03 5.41334E-02 3.21821E-02 1.68492E-02
 -1       885 1.48136E-02-1.11777E-01 9.19756E-03 5.57770E-02-1.88136E-02 2.99909E-03
 -1       886 6.58560E-03-2.49714E-01 2.78311E-02 5.68356E-02 4.71835E-02 4.36564E-02
 -1       887 2.71284E-02-1.73367E-01 8.24766E-02 5.96250E-02 1.68398E-02 6.09417E-03
 -1       888 3.50504E-01 1.72252E-01 1.55472E-02 4.15258E-02-2.32159E-02-1.02963E-02
 -1       889 1.96443E-01 4.89252E-02-1.24901E-01 3.43167E-02-9.52502E-02-2.47181E-02
 -1       890 3.22531E-01 1.34703E-01-1.49707E-02 4.56872E-02-5.37557E-03-1.23137E-03
 -1       891 3.08429E-01 2.14107E-01 5.70114E-02 5.53496E-02 1.83009E-02 3.21090E-03
 -1       892 3.50264E-01 8.60867E-02-2.35446E-02 5.56400E-02-2.46517E-02 4.16750E-03
 -1       893 2.72917E-01 9.73571E-02-2.05485E-02 4.91390E-02 1.49489E-03 6.91092E-03
 -1       894 3.09234E-01-1.93027E-02-6.10443E-02 8.93650E-02 3.83841E-02 4.76463E-03
 -1       895 2.53824E-01 6.40665E-03 2.88605E-02 1.41297E-01-1.52031E-02-1.90468E-02
 -1       896 4.24859E-01 4.97992E-02 8.54730E-04-1.23921E-02-4.63538E-03-2.28997E-02
 -1       897 5.00726E-02 2.04389E-02-7.74055E-03-1.04787E-02-7.10622E-03 6.93846E-03
 -1       898 1.81571E-01 3.38522E-02 3.57458E-03-1.88089E-02 1.63838E-03-7.26267E-03
 -1       899 2.17891E-03-5.44953E-03-1.00489E-02 4.63724E-03 2.19146E-03-2.58216E-03
 -1       900 4.04959E-03-1.53540E-03-2.11494E-02 1.71204E-03 1.50862E-03-1.03932E-02
 -1       901 4.94154E-03-1.77151E-02 1.48503E-02-2.44512E-02 6.29986E-03 1.48820E-02
 -1       902 1.64561E-02-8.02877E-03 6.78041E-03-8.34167E-03 1.04919E-03 3.16387E-03
 -1       903-2.01153E-01-6.17101E-02-4.48664E-02-6.66671E-02-4.54095E-02-3.48448E-02
 -1       904-7.83411E-02-6.22055E-02-1.53781E-03-6.99420E-02-1.74937E-02-2.57859E-02
 -1       905 1.73729E-01 1.15888E-02-2.72412E-02 7.26791E-02-9.85867E-03-3.26671E-02
 -1       906-2.83762E-01-9.22771E-03-8.84575E-03-5.87770E-03 1.82521E-02-1.11132E-02
 -1       907 4.04989E-01-7.04152E-02 1.81902E-02 1.38356E-01-1.69290E-02-5.48189E-02
 -1       908 1.15772E-01 1.88237E-01-2.49893E-02 3.04814E-02-3.96398E-02 1.60259E-01
 -1       909 1.16685E-01 6.49243E-02 2.77386E-03-9.88248E-02-3.63259E-03-1.16804E-02
 -1       910 1.63468E-01 1.18505E-01 2.58789E-02 3.08897E-01-4.70788E-02-2.13756E-02
 -1       911-1.12269E-01 2.70797E-01-7.89566E-03 2.90289E-01 2.07054E-02-9.90575E-02
 -1       912 4.01555E-01-9.08003E-02-1.62207E-03 1.33277E-01-4.61643E-02-5.13069E-04
 -1       913-3.14257E-03 2.32726E-02-1.08686E-03 8.21537E-03 6.88078E-03-1.53886E-03
 -1       914 1.86040E-02 2.66596E-02 5.13715E-04-6.03141E-03-3.19012E-03 1.35451E-03
 -1       915-1.88946E-02 8.81061E-03 3.06201E-04 5.39988E-02 7.45325E-03 2.86577E-03
 -1       916-3.39783E-03 4.15277E-02 2.35547E-03 2.76927E-02-2.26651E-03 1.18543E-03
 -1       917-4.51655E-02 6.15613E-02 2.68647E-03 1.01187E-01-9.38116E-04-1.57852E-03
 -1       918 1.80733E-01 2.23628E-02 1.37696E-02-6.35742E-02 8.74862E-02-2.18199E-02
 -1       919-5.29453E-02 1.24621E-01-5.40218E-03-1.46944E-01 4.75186E-03-7.74914E-03
 -1       920 6.66036E-02-3.20016E-02 5.60368E-03-1.38557E-01 2.21739E-02-2.52326E-02
 -1       921 2.23875E-01-7.40457E-02 1.32537E-02 2.05959E-02 7.36263E-04 7.50096E-02
 -1       922 1.77149E-01-2.15817E-02 1.60454E-03-7.99869E-02 1.49415E-03-1.67199E-02
 -1       923 2.53639E-01-6.67862E-02-1.96944E-02-7.30063E-02-2.22144E-02-1.46186E-03
 -1       924 1.39709E-01 5.83579E-02 3.36360E-03-9.01259E-02 2.26257E-03-3.37201E-03
 -1       925 2.23908E-01-8.18008E-02-7.95911E-03-8.50269E-02-9.48953E-03-1.02793E-02
 -1       926 7.56535E-02-1.30347E-01-1.70345E-03 5.82823E-02-4.54413E-03 7.41054E-03
 -1       927 1.09270E-01-5.58616E-02 8.96497E-02 1.33718E-01 5.26840E-02 3.12787E-02
 -1       928-7.77421E-01-4.31442E+00 1.80610E-01 2.33080E-02-1.92725E-01-1.91939E-01
 -1       929-7.43476E-01-4.57811E+00-4.53237E-01-2.65060E+00-4.99856E-01-7.16238E-02
 -1       930-8.33306E-01-2.14589E+00-1.29739E+00-4.01445E+00-9.59544E-01-6.60050E-01
 -1       931 1.26024E+00 5.09129E+00 3.15200E-01-1.00088E+00 6.44666E-01-4.02443E-02
 -1       932 2.17986E-01-5.33043E-01 2.13950E-01-1.76357E+00 1.42607E-01 3.94182E-02
 -1       933 1.42198E+00 4.69192E+00 8.74365E-01-5.45418E-01 5.93942E-01-1.86679E-01
 -1       934 1.12566E+00 1.96812E+00-4.29146E-02 1.78542E-01 4.43543E-02 3.45299E-01
 -1       935 5.05128E-01 4.74109E-01-3.73727E-02 2.70605E-01 1.89598E-01 1.13029E-01
 -1       936 3.41828E-01 8.17934E-02-4.62513E-02 5.28164E-02 3.41329E-03-3.24490E-03
 -1       937 4.68224E-02-2.54011E-02 3.63733E-02 4.46641E-02-6.70500E-03-2.05612E-03
 -1       938 8.37903E-02 3.49938E-02 1.96104E-02-6.70625E-02 6.04357E-03 1.19002E-02
 -1       939 2.79534E-01 1.52811E-01-8.27859E-03 4.37256E-02-6.45172E-03 3.61886E-03
 -1       940 1.22206E-02-4.17209E-02 5.23866E-03 3.95413E-02 1.08463E-02-1.92437E-03
 -1       941 6.63455E-02-7.28543E-02-7.08393E-03 5.64827E-02 2.93732E-03 2.19705E-03
 -1       942 2.35683E-02-9.33483E-01-1.16169E-01-1.10678E+00-3.89916E-02 2.80492E-02
 -1       943 5.14743E-01-1.27206E+00 2.05559E-01-7.24198E-01-8.71517E-02-9.60226E-02
 -1       944 3.29365E-01 1.05305E-01-3.51348E-02 3.14546E-02-1.18303E-03-3.84405E-03
 -1       945 2.76920E-01 1.59530E-01-5.37468E-03 3.19610E-02-1.25951E-02 4.08662E-05
 -1       946 1.17135E-01 1.16926E-02-1.59314E-02-1.09817E-01 4.87707E-02 1.12346E-02
 -1       947-1.01584E+00-2.36339E+00-4.68008E-01 2.89729E-01-7.26700E-01 1.73695E-02
 -1       948-2.29436E-01-1.41956E+00-4.99262E-01-4.75948E-01 1.90871E-02-6.74063E-02
 -1       949 2.16055E-01-7.59182E-01 2.17813E-01-5.71594E-02-3.09254E-02 7.75998E-02
 -1       950-5.97883E-01-2.65107E-01-2.00071E-02 1.81374E-01 1.48997E-01 1.58988E-01
 -1       951 6.49972E-01 1.50217E+00 8.94900E-01-1.17016E+00 4.15388E-01 4.78674E-02
 -1       952 1.52980E-01 1.14335E+00 6.73524E-02-3.30272E-01 7.46196E-02-1.31509E-01
 -1       953 7.87761E-02 8.88174E-01 2.87768E-01-7.12620E-01 1.16117E-01 1.01161E-01
 -1       954 2.16308E-01-5.15976E-01-7.05618E-02 9.35011E-02 8.06919E-02-7.21474E-02
 -1       955-9.34186E-02 1.03898E-01-1.37203E-01-1.37777E+00-1.05974E-01 1.99165E-01
 -1       956 5.77844E-03-2.00497E-03 4.17465E-03-5.27505E-03 1.67073E-03 6.47116E-04
 -1       957 5.52856E-03-1.08879E-04 1.35612E-04-1.74774E-03 3.90871E-04 2.16628E-05
 -1       958 9.55439E-02 4.21323E-02 2.21196E-02-5.82255E-02-3.48159E-02-4.92958E-03
 -1       959 1.31941E-01-3.89110E-02-8.36507E-03-6.65183E-02 1.05844E-01 2.71823E-02
 -1       960-1.79522E-02 8.61524E-02-4.60151E-03-6.16465E-02 7.13601E-03-9.86057E-04
 -1       961 3.25825E-02 1.02673E-02 1.26539E-03-4.33623E-02 9.21732E-03-6.27712E-03
 -1       962 1.65421E-01 4.93444E-02 3.28693E-02-4.25017E-02-7.31222E-02 1.07114E-02
 -1       963-6.05764E-03 3.44383E-02 5.67532E-04-8.59436E-03 2.91850E-03 2.01130E-03
 -1       964 8.89851E-03 1.89458E-03-1.03717E-03 1.36534E-04-1.30910E-04 2.87684E-04
 -1       965 8.08489E-03 5.77883E-04-3.40036E-03 8.84791E-04-1.86142E-04 2.52610E-04
 -1       966 1.18611E-01 2.51143E-02-2.52176E-03-1.98443E-02-7.25226E-02-3.48165E-02
 -1       967 1.53500E-01-3.85564E-02 7.82075E-03 2.57571E-04 7.76122E-02 1.05020E-02
 -1       968 1.57321E-01-4.39462E-02-1.20258E-02-2.76505E-02 1.20439E-01 2.78140E-02
 -1       969-1.44916E-04 4.57793E-02-6.26746E-03-1.16948E-02 1.06816E-03 3.29097E-03
 -1       970 2.82758E-02 2.12118E-02 4.28016E-03-1.46544E-02-4.38175E-03-4.90687E-03
 -1       971 1.47974E-01 4.56739E-02-7.55434E-03-1.14433E-03-8.65188E-02 1.61100E-03
 -1       972 7.45230E-03 9.17205E-05-2.37245E-03-1.98936E-04-5.98875E-04-5.79844E-04
 -1       973-1.57640E-02-3.63676E-02-4.70907E-03 9.26519E-02 5.37569E-03-1.09452E-02
 -1       974 7.23224E-02-6.72584E-02 3.64724E-03 9.50585E-02 3.08664E-03-3.82813E-03
 -1       975-7.95034E-03-3.67808E-02-2.25258E-02 5.22700E-02 1.22164E-03 4.38474E-03
 -1       976 2.75697E-02-3.13208E-02-6.48505E-03 5.91921E-02-3.87669E-03 6.08555E-03
 -1       977-4.91356E-03-1.15928E-01-4.73655E-02 6.03544E-02 3.22424E-03-1.31827E-02
 -1       978 4.26186E-02-1.68251E-01-5.95963E-02 5.55089E-02 6.20022E-03-4.42281E-03
 -1       979-2.20339E-03-1.81098E-01-5.42233E-02 3.45691E-02 5.09309E-03-1.35961E-04
 -1       980-3.14179E-02-3.11644E-01-1.65258E-01 7.34394E-02 2.10522E-02-1.37481E-02
 -1       981-2.88899E-01-3.69573E-01-1.32103E-02 3.83812E-01 3.10005E-01-1.88339E-01
 -1       982-1.33784E-01-1.83546E+00 7.83585E-02 1.15147E-01-3.10743E-02 8.35929E-02
 -1       983 3.16474E-01 9.45182E-01-6.87119E-02 2.58095E-02 6.36640E-02 7.79202E-03
 -1       984 3.26674E-01 8.85854E-02-1.65477E-01 2.53330E-01-5.05202E-02-2.05242E-02
 -1       985 2.80573E-01 9.45734E-02 1.11841E-02 6.17155E-02 1.25754E-02 5.17202E-04
 -1       986 3.50797E-01 1.05989E-01 2.02161E-02 4.63539E-02-4.02647E-03 5.50529E-03
 -1       987 2.82752E-01 9.42857E-02 1.35848E-02 5.56483E-02-4.38648E-03-3.60949E-03
 -1       988 3.39946E-01 6.78894E-02 1.72950E-02 6.48933E-02-2.09089E-02 5.27561E-02
 -1       989 2.23859E-01 2.97699E-02-2.11107E-02 1.17299E-01 1.62853E-02-4.67715E-02
 -1       990 3.87237E-01 5.91222E-02 1.61647E-02 9.00456E-02 1.81842E-02-4.88579E-02
 -1       991 4.05865E-01 1.78045E-02-3.40717E-03-6.55191E-03 4.40648E-04 6.73392E-03
 -1       992 1.48626E-02-1.00909E-02 5.72850E-03-9.56160E-03 4.66435E-05 4.65027E-03
 -1       993 6.60067E-04-1.87123E-02 2.82983E-03-2.53902E-02-3.70999E-03-1.38193E-03
 -1       994-7.97652E-02-4.64123E-02 1.38639E-03-6.64115E-02-4.11932E-03 2.58280E-03
 -1       995-2.42873E-01-6.33812E-02-2.81420E-02-7.21604E-02 3.45756E-02 1.68565E-03
 -1       996 2.38699E-01 3.00317E-02 7.51038E-02 6.09615E-02-4.25754E-04-7.60493E-02
 -1       997 2.01467E-01-8.64114E-02-7.80591E-03 1.56538E-03-2.58119E-02-9.35254E-02
 -1       998 1.71976E-01-2.10370E-02-2.73481E-03-7.87051E-02-2.10783E-02 1.02171E-02
 -1       999 2.43336E-01-1.49825E-02-4.81339E-03-6.72563E-02 4.81586E-03 6.15220E-04
 -1      1000 1.43939E-01-2.89222E-03 7.08819E-03-1.03102E-01-7.70779E-03-4.78671E-04
 -1      1001 8.20477E-02 3.40796E-02-3.45850E-03-9.85024E-02 1.12356E-02 3.07056E-02
 -1      1002 7.69970E-02 9.07526E-02-4.00311E-02 4.80300E-02 2.94485E-02-1.21489E-01
 -1      1003-4.54343E-02 3.52220E-01 4.73980E-03 2.49648E-01 2.15912E-02 5.71317E-02
 -1      1004 1.73362E-01 1.35882E-01 3.31268E-02 2.97962E-01 3.89853E-02 2.90298E-02
 -1      1005 3.81652E-01-1.71718E-01-2.22016E-02 2.02702E-01 9.19103E-02-3.94712E-02
 -1      1006 2.06356E-01 5.44967E-02 2.16303E-02-4.46091E-02-1.43632E-01 2.16981E-02
 -1      1007 1.02325E-03 1.30646E-01-6.93105E-03-1.73315E-01 2.34548E-02 2.77491E-03
 -1      1008 8.60971E-02-4.76703E-02 4.46607E-03-1.32482E-01 8.81621E-04-5.90113E-03
 -1      1009 4.39766E-03 4.50389E-02-1.69715E-02-1.11515E-01 8.61510E-04-6.52738E-02
 -1      1010-5.82466E-03 3.37890E-02 3.24070E-03 2.18724E-02 1.15609E-02-3.69245E-03
 -1      1011-1.64675E-02 1.51184E-02 2.19719E-02 5.19489E-02-2.41202E-02-3.50646E-03
 -1      1012-5.01121E-02 7.24412E-02 2.05962E-03 9.81979E-02 3.27242E-03 6.10643E-04
 -1      1013-3.58033E-03 2.90968E-02 6.79671E-03 5.07539E-03-1.13378E-02 1.14343E-03
 -1      1014 1.88024E-01 4.93597E-02-1.40733E-03-2.98700E-02 2.31143E-02-2.02563E-02
 -1      1015 1.69040E+00 3.94957E+00 9.98128E-01-7.20280E-01-1.41130E+00-2.23047E-01
 -1      1016-2.54434E-01 3.92234E-02-1.72558E-01-3.69029E+00 5.71694E-01 1.17470E+00
 -1      1017 6.97134E-01 1.87126E+00-7.29442E-02-5.79423E-01 2.57697E-01-7.84864E-02
 -1      1018 2.56014E-01 7.18343E-02-2.99619E-02 8.75046E-02-3.49251E-03 2.74992E-02
 -1      1019 2.53179E-01 1.44992E-01-5.32448E-02 4.67874E-02 1.33171E-02 7.76408E-03
 -1      1020 3.33117E-01 1.54844E-01 3.68204E-03 4.50384E-02 8.88143E-03-1.86618E-02
 -1      1021 3.90552E-02 1.35044E-02-9.62660E-03-9.49138E-03 6.61586E-03-2.16940E-02
 -1      1022-1.18714E-03-1.73576E-03-1.56545E-02 2.71996E-04-1.41857E-03 1.71985E-02
 -1      1023-2.37186E-02-2.53396E+00-3.29553E-01-2.07086E+00-5.15036E-03 2.68498E-01
 -1      1024 3.38579E-01 1.59812E-01 3.03169E-02 4.49488E-02-2.09591E-02 2.02625E-03
 -1      1025 1.03892E-02 1.54775E-03 6.88195E-03-4.95571E-03-4.90484E-03-1.63897E-03
 -1      1026-2.91414E-01-3.43351E-02-1.84801E-02 2.14982E-03-2.18158E-02-4.52848E-03
 -1      1027 2.87509E-02 3.10793E-02 1.02989E-02-1.02992E-02 7.94786E-03 1.64820E-02
 -1      1028 1.84730E-02 1.78187E-02 3.76970E-03-6.75332E-02 3.04081E-02 4.28280E-02
 -1      1029 4.32084E-01 4.99944E-01 1.02498E-01-1.24802E+00-1.85021E-02 2.79138E-02
 -1      1030 6.05409E-02-1.23819E-01-5.10397E-02 4.25187E-02 1.07839E-02-6.78639E-03
 -1      1031-1.17607E-02-2.21267E-01 1.57883E-03-9.59106E-02-5.48277E-02 6.31608E-02
 -1      1032 2.73310E-01 1.22088E-01-6.45723E-03 5.89977E-02 8.45171E-03 5.62640E-03
 -1      1033 7.24132E-02-6.28612E-02 7.89168E-03 4.06239E-02 8.58266E-03-1.57759E-03
 -1      1034-3.16982E-03-4.78218E-02-2.40337E-02 5.19971E-02 4.85002E-03-8.07274E-03
 -1      1035 4.45257E-01 1.68472E+00 1.10063E+00-1.24900E+00-8.96624E-02 3.35065E-01
 -1      1036 3.38772E-01 1.22671E-01 1.15010E-02 3.57946E-02-1.18095E-02 1.08405E-02
 -1      1037-1.51720E-03-2.59109E-03-4.31307E-03 3.40150E-03-4.42924E-03 2.57390E-04
 -1      1038 2.56494E-01-1.08160E-01-2.03656E-02 1.59650E-01 5.80796E-03 8.30642E-02
 -1      1039 2.52346E-01-8.33433E-03 9.16675E-03-5.01343E-02 5.55313E-03 1.61800E-02
 -1      1040 1.45524E-01 6.03082E-03-8.93752E-03-8.74025E-02-4.03780E-03 8.12347E-05
 -1      1041 1.62869E-01 5.85498E-03 5.49134E-03-6.40269E-02-1.25250E-02 3.24367E-03
 -1      1042 4.74991E-03 3.65631E-02 1.44937E-02-1.07106E-02 2.43837E-03-2.73237E-02
 -1      1043 3.81974E-02 6.65386E-02-2.21723E-02-1.10076E-01-4.73740E-03-1.09808E-02
 -1      1044 5.89709E-03-3.76164E-04-4.23291E-03 1.29087E-03 5.59603E-04 1.03129E-03
 -1      1045 9.14663E-03 2.36269E-03 1.00056E-03-1.80914E-04-7.99816E-04 9.72846E-04
 -1      1046 7.41784E-03-4.39932E-05-2.19345E-04-1.37624E-03 7.14464E-04-5.39041E-04
 -1      1047 1.56351E-01-4.16903E-02-1.06936E-02-4.54989E-02 7.00974E-04-1.73085E-02
 -1      1048-3.21029E-02 5.93593E-02 1.75429E-02-1.40526E-02-1.83163E-02-3.40144E-02
 -1      1049 3.65530E-02 2.74937E-02-4.01969E-03-3.90919E-04 1.13073E-02 2.18816E-02
 -1      1050 8.82996E-02 5.81333E-02-2.03659E-02-6.54946E-02 7.60501E-03-2.88474E-02
 -1      1051 1.95892E-01-1.60996E-02 3.58041E-03-1.39227E-02 8.39670E-03 2.29023E-02
 -1      1052 1.38781E-01 3.61547E-02 2.32766E-04-3.32659E-02 4.78812E-03-2.72330E-03
 -1      1053 1.56395E-01-2.25810E-02-5.45007E-03-1.16885E-02-2.76385E-03 1.51836E-03
 -1      1054-6.61235E-03-1.24280E-02-3.75338E-02-6.54135E-04-3.13552E-03-1.12704E-03
 -1      1055-6.44526E-04-1.08906E-02 3.20263E-03 3.32632E-02 2.25858E-03 1.35121E-02
 -1      1056 1.31976E-03-1.09279E-02-1.48448E-02 6.75682E-03-6.95779E-04-7.44652E-04
 -1      1057-6.63330E-03-4.38857E-03-1.39947E-02-1.53814E-03-2.82670E-04-2.11167E-05
 -1      1058-1.23229E-02-6.47090E-03-1.46731E-02-2.90297E-03 1.86502E-03-1.86191E-03
 -1      1059-1.60087E-03 1.99175E-03 3.21791E-03-2.99299E-03-1.80598E-03 2.12498E-04
 -1      1060 1.91346E-03 6.37338E-04 2.59733E-03 3.03448E-03 6.41938E-04-8.14890E-04
 -1      1061-1.39418E-02-1.28725E-02-3.11436E-03-1.41481E-02 4.28855E-04-6.29467E-03
 -1      1062 1.21618E-02 7.65527E-03 1.42939E-02-2.76978E-04 2.03254E-03 2.54442E-03
 -1      1063 4.10290E-02 4.03738E-02 2.16543E-02-1.35166E-02-3.09131E-03-8.38491E-03
 -1      1064 2.46701E-04-2.00762E-03-5.22350E-03 1.18598E-03-7.15303E-04-2.19860E-03
 -1      1065 6.32344E-04 6.46054E-04 6.72628E-04-1.19286E-03-4.62720E-04 7.01615E-04
 -1      1066-2.25127E-03-2.30130E-03-4.55438E-03 1.30851E-03-1.22966E-04 1.20601E-03
 -1      1067-9.37214E-04-9.75732E-04-2.38710E-03-3.84331E-05 1.74695E-04-7.76158E-04
 -1      1068-1.28350E-04-5.58165E-04-1.69027E-03-8.35484E-05-1.20076E-04 4.15731E-04
 -1      1069-8.08627E-04-5.59800E-04-8.38331E-04 4.16043E-04 1.48249E-04-3.50562E-04
 -1      1070 2.41581E-02-2.60564E-01-6.76226E-02-4.48132E-03 4.03412E-03 1.16931E-03
 -1      1071 1.40597E-02 8.39644E-02 4.69970E-02 9.41485E-03 9.06617E-03 1.32327E-02
 -1      1072-8.68493E-03 1.57842E-01 1.09316E-02 1.02510E-02 6.10947E-03-3.95793E-03
 -1      1073-5.94019E-02-4.83072E-01-8.65074E-02-3.40871E-03 2.79064E-02-1.54401E-02
 -1      1074-6.02171E-02-5.66111E-01-1.23590E-01 3.25917E-03 1.69007E-02 1.16499E-02
 -1      1075-5.22385E-02-1.36409E-01-3.56353E-02 9.29660E-03 1.09652E-03-1.54964E-02
 -1      1076-2.25099E-02-2.90744E-01-2.33763E-02-1.75824E-02 3.81365E-03 2.41209E-02
 -1      1077 5.38069E-03 2.07088E-01 7.18500E-03-4.98176E-03-2.81450E-03 1.43749E-03
 -1      1078-3.07326E-03 2.46908E-01 5.47706E-03 4.00026E-03 3.05047E-03 2.04887E-03
 -1      1079-3.05601E-02 7.35340E-02-1.56629E-02-2.40096E-04-2.17903E-03 1.32085E-02
 -1      1080-2.79940E-03 2.50857E-01-6.23314E-05 2.64440E-03 1.19339E-03 1.63384E-03
 -1      1081-1.08043E-02 2.39945E-01-5.57279E-03-4.90449E-04 6.41045E-03 9.73151E-04
 -1      1082-5.14146E-03 1.52713E-01-1.33458E-02 3.40189E-03-5.61568E-03-6.51444E-03
 -1      1083 5.13953E-03 2.13341E-01-7.06104E-03-3.80657E-04-2.77657E-03-1.04740E-03
 -1      1084-6.42800E-03 1.93743E-01-8.78218E-03 2.07721E-03-6.82017E-03 4.11820E-03
 -1      1085 8.58287E-02 3.64193E-03 2.96789E-02 7.22617E-03-3.33562E-03-5.71747E-03
 -1      1086 1.47579E-01-1.03613E-02-4.28200E-02-1.55163E-02-3.57885E-03 4.64112E-03
 -1      1087 1.69111E-01-3.06380E-02 1.80755E-02 1.23847E-02 3.21397E-03-5.95933E-03
 -1      1088 3.15227E-01 1.94847E-03 4.37164E-02 9.48148E-03 4.50334E-03 1.68419E-03
 -1      1089 2.29412E-01-8.21577E-03 3.30406E-02-7.32476E-03 2.63901E-03 8.00687E-04
 -1      1090 8.23533E-01 3.55870E-02 1.83893E-01-5.95034E-03 2.68943E-02-8.53688E-04
 -1      1091 7.34294E-01 2.68209E-02 1.53149E-01 2.96657E-03 2.66716E-02 1.04716E-03
 -1      1092 9.67957E-01 2.57547E-02 3.54084E-01-4.31530E-03 5.51404E-02-3.16831E-02
 -1      1093 9.16875E-01 1.08886E-01 2.35343E-01-1.46980E-02 2.43093E-02 7.20194E-03
 -1      1094 9.23827E-01-2.49676E-02 5.35337E-01 1.62931E-02 4.52523E-02 4.49906E-02
 -1      1095 8.67355E-01-1.92032E-02 4.97030E-01 1.99295E-02 2.52949E-02 1.61448E-02
 -1      1096-3.53796E-01 5.08270E-02-2.52983E-01-3.43889E-04-6.89248E-02-6.40659E-02
 -1      1097 5.10031E-01 4.69281E-01 3.14568E-01 1.23913E-01 2.14669E-01 7.25311E-02
 -1      1098-6.93172E-01-1.45206E-02-3.00467E-01 7.18830E-03 5.45433E-02 2.58435E-02
 -1      1099-6.68982E-01 2.76317E-02-4.38421E-01 2.12828E-02 5.31952E-02-8.80993E-02
 -1      1100-5.86595E-01-5.15872E-02-1.78271E-01-6.39981E-03 3.92865E-03 7.30570E-03
 -1      1101-6.69221E-01 1.34707E-02-1.82758E-01-1.57613E-02-1.91841E-02 2.41445E-03
 -1      1102-4.35576E-01-1.91277E-03-1.63094E-01-2.19638E-03 1.80385E-02 4.61601E-03
 -1      1103-4.79391E-01 3.33154E-02-1.54544E-01-5.25986E-03 1.00042E-02 3.80977E-03
 -1      1104-1.02047E-01-1.25985E-02-1.04434E-01-3.35961E-03 1.68675E-02-5.02952E-03
 -1      1105-1.46644E-01 6.23714E-02-9.29319E-02-3.09105E-03 2.12150E-03-6.21905E-04
 -1      1106 6.37255E-02 7.84833E-03-8.01876E-02-4.92932E-03 3.50610E-03-3.55018E-03
 -1      1107 2.93444E-02 8.41652E-02-5.33091E-02 2.56067E-03-3.38529E-02-7.39606E-03
 -1      1108-2.81503E-01-6.16299E-03-1.26792E-01-4.66074E-03 1.40910E-02 5.33448E-03
 -1      1109 6.68543E-01 2.80915E-02 1.26590E-01-1.37209E-03 1.74302E-02-1.71706E-03
 -1      1110-3.19689E-01 5.98458E-02-1.11996E-01-4.09046E-03 7.05280E-04 7.68539E-03
 -1      1111 3.95024E-01 3.55467E-03 4.88944E-02 4.21407E-06 1.67598E-03 7.82019E-03
 -1      1112 4.79972E-01 3.86829E-02 9.38179E-02-2.39584E-03 1.91235E-02-5.63865E-03
 -1      1113 5.43359E-01-7.56819E-03 7.77549E-02 6.55904E-03 1.44089E-02 6.13380E-04
 -1      1114-3.01264E-01-7.29953E-01-7.10703E-01 1.84091E+00-1.13998E-01-9.20931E-01
 -1      1115-8.15545E-02-4.54714E-01 2.25885E-01 6.34629E-01-3.95754E-01-1.95668E-01
 -1      1116 1.78381E-01 7.95609E-01 4.74042E-01 1.62131E+00 2.42705E-01 8.61750E-01
 -1      1117-4.74908E-01 3.85411E-02-1.68961E+00 1.49729E+00-3.74629E-01 9.23243E-01
 -1      1118 7.45389E-01 1.25324E+00 1.23141E+00 2.89267E+00 7.45835E-01 5.69766E-01
 -1      1119-5.50112E+00-1.19138E+02-2.50056E+01 4.38399E+00 7.34554E+00-4.11994E-01
 -1      1120 8.08532E-01-1.07047E+02-1.29595E+01 7.54700E-02 3.09404E+00 1.05427E-01
 -1      1121 1.44559E+00-1.12277E+02-1.52541E+01-1.88813E-01 5.12851E+00-1.26908E+00
 -1      1122-1.77863E+00-9.43244E+01-1.00863E+01-3.83448E-01-1.32436E+00 6.06614E-01
 -1      1123-1.07671E+00-9.69499E+01-8.40370E+00-3.91517E-01-7.40705E-01 2.35925E-01
 -1      1124 3.40875E+00-9.49457E+01-7.07575E+00-4.53969E-01-5.04368E-02-8.68520E-01
 -1      1125-4.88347E-01-5.98968E+01-3.70916E-01 1.27514E+00-9.61147E-01 2.71579E-01
 -1      1126 1.10539E-02-7.27872E+01-3.83294E+00 4.11924E-02-1.00190E+00 1.25807E-01
 -1      1127 6.37238E-01-4.64569E+01 1.69004E+00-2.27646E-03-3.10890E-02-2.76300E-01
 -1      1128 3.45176E+00-2.25203E+01 4.97379E+00-6.07757E-01 1.00830E+00-1.01167E-01
 -1      1129 2.21885E-01-2.25065E+01 4.74266E+00-2.33578E-01 1.26889E+00 1.86582E-01
 -1      1130-1.74505E+00-1.07674E+01-1.52805E+00-2.58758E-02-5.23305E+00-4.99802E-01
 -1      1131-1.88475E+00-1.16575E+02-2.28829E+01 2.46986E+00-7.66935E+00-1.97697E+00
 -1      1132-3.90861E-01-1.11516E+02-1.46831E+01 2.68290E-01-5.08524E+00 1.48195E-02
 -1      1133 1.10574E+00-1.03161E+02-1.07291E+01 2.34481E+00-2.00544E+00 2.17059E-01
 -1      1134 1.39776E+00-9.45027E+01-7.53123E+00-1.10329E+00 1.63464E-01-5.45745E-01
 -1      1135-2.72048E+00-9.37550E+01-1.00565E+01 4.22232E-01-8.43098E-01 1.45458E-01
 -1      1136 2.50128E-01-7.31943E+00 2.37796E-01-7.44227E-01 5.34356E+00 5.06266E-01
 -1      1137-3.19061E+00-1.17842E+02-2.60614E+01 1.22205E+00-1.86602E+00-1.21147E+00
 -1      1138-7.02934E-01-7.73031E+00 2.56367E+00-3.94575E-01 1.38233E+00-7.31731E-01
 -1      1139-1.08550E+00-9.57303E+00-8.79111E-02-6.74486E-01-1.97282E+00 4.95270E-01
 -1      1140-8.55688E+00-1.21489E+02-3.36887E+01 1.85857E+00 1.75397E+00 2.03192E+00
 -1      1141 5.33916E-01-1.04389E+01 2.70367E+00-1.33701E+00-3.18041E+00-1.34547E+00
 -1      1142-8.28986E-01-8.14072E+00 5.08205E+00 8.92649E-01 3.47197E+00 2.97930E-01
 -1      1143 3.90037E-02-3.62276E+01 8.94655E-01 1.49045E+00 1.70962E+00-6.83827E-02
 -1      1144 1.62820E+00-1.53179E+01 4.98862E+00 7.03301E-01-2.16597E-01 5.46141E-02
 -1      1145-2.64363E+00-1.59742E+01 4.07043E+00 1.26639E+00 2.03540E+00 1.37179E-01
 -1      1146-2.04321E+00-7.80996E+01-5.55676E+00 1.14461E+00-9.59626E-01 6.86606E-02
 -1      1147 6.61622E+00 1.18678E+02 2.47744E+01 3.61087E+00 7.00322E+00 3.96651E-01
 -1      1148 2.06468E-01 1.05486E+02 1.21865E+01 1.26158E-01 2.41468E+00 1.08321E-01
 -1      1149-1.35569E+00 1.11277E+02 1.45523E+01-4.08409E-01 5.46243E+00 1.26949E+00
 -1      1150 1.31802E+00 9.29651E+01 9.00968E+00-9.16056E-01 3.62812E-01-2.51220E-01
 -1      1151 3.04682E-01 9.54558E+01 7.72300E+00 5.56814E-01-2.86386E-01-2.71319E-01
 -1      1152-5.00733E-01 9.59948E+01 8.24014E+00 6.03204E-01 3.08203E-01-2.08764E-01
 -1      1153 3.93701E-01 6.20929E+01 9.52220E-01 1.38679E+00 1.05272E+00 2.18432E-01
 -1      1154-1.43240E-01 7.30576E+01 3.60949E+00-4.10247E-01 8.86514E-01-1.54811E-01
 -1      1155 3.05908E-01 3.37539E+01-1.58112E+00 1.59426E+00-1.60406E+00-4.47914E-02
 -1      1156-2.13349E-01 4.68471E+01-1.37389E+00-2.46914E-02-6.44681E-03-2.67079E-01
 -1      1157 3.92953E-01 2.26796E+01-4.44105E+00 1.12517E-01-1.24330E+00 1.21686E-01
 -1      1158-2.96950E+00 1.23322E+01-3.97812E+00-5.19173E-01-2.80484E+00 1.84033E+00
 -1      1159-1.15872E-01 1.95872E+01-3.73529E+00 1.11034E+00-1.69469E+00 2.70215E-02
 -1      1160 5.46619E+00 7.82114E+00-1.42493E+00-9.52489E-01-4.36210E+00-7.73610E-01
 -1      1161 1.96037E+00 1.17927E+02 2.45330E+01 3.38307E+00-7.17640E+00 2.54845E+00
 -1      1162 2.05466E+00 1.12175E+02 1.56704E+01 8.61296E-01-4.46182E+00-1.51161E-01
 -1      1163 1.39641E+00 1.04180E+02 1.14178E+01 1.62718E+00-1.59861E+00-1.07841E+00
 -1      1164-4.40036E-01 9.62182E+01 9.12386E+00-1.23601E+00 1.24702E+00 3.63974E-01
 -1      1165 2.03034E+00 9.45282E+01 1.04663E+01 4.55713E-01 1.19008E+00-3.00068E-01
 -1      1166-1.31252E+00 2.05244E+01-2.91902E+00-7.61422E-01 5.44120E-01-2.39789E-01
 -1      1167 9.96621E-01 1.56328E+01-2.88605E-01 8.09009E-01 2.86755E+00-7.91306E-01
 -1      1168-1.10831E-01 9.90869E+00 1.00147E+00-8.01232E-01 5.11590E+00-2.82959E-01
 -1      1169 4.57683E+00 1.19131E+02 2.94991E+01 1.53136E+00-1.60160E+00 4.82435E-01
 -1      1170 7.78154E+00 1.19589E+02 2.70854E+01 2.24264E+00 2.51237E+00-4.72333E+00
 -1      1171-6.93397E+00 3.90619E+00-7.73712E+00 2.08224E-01-3.18231E+00 5.98647E-01
 -1      1172 2.09404E-01 9.81098E+00-1.78365E+00 1.22004E+00 3.08286E+00 1.10084E+00
 -1      1173 1.40818E+00 2.20265E+01-3.83093E+00 3.62386E-02-1.03798E+00 9.85318E-02
 -1      1174-1.12744E+00 7.42995E+00-3.27377E+00-3.78727E-01-2.59349E-02-1.53505E+00
 -1      1175 2.27736E+00 7.80108E+01 5.64532E+00 1.39382E+00 9.37796E-01-7.50429E-02
 -1      1176-1.06145E+00 1.26259E+01-8.36176E+00-1.37905E+00-1.42065E-01 2.17592E-01
 -1      1177-2.78173E+00 1.86553E+01-6.15235E+00-5.36346E-01-1.24774E+00 5.41750E-01
 -1      1178 1.11461E+00-9.44204E-01 1.45020E-01 3.24639E+00 6.51035E-01-1.34596E+00
 -1      1179 1.93477E-01 1.02481E+00-3.26574E-01 1.53605E+00 1.89270E-01 6.91603E-01
 -1      1180 6.09550E+00-6.21671E-01 8.33664E+00-7.17143E+00 8.71325E-02-8.34715E+00
 -1      1181-8.11691E-01-3.21988E+00-1.00286E+00 1.65036E+00-4.17434E-01-1.63333E-01
 -1      1182-1.22307E+00 1.31517E+00 3.94220E-01-1.36237E+00 6.54361E-02-2.86743E+00
 -1      1183 1.09432E+00 2.75559E+00 1.42427E+00 3.56516E+00-8.35774E-01-1.06139E+00
 -1      1184-4.95692E-01-5.62171E+01-8.20463E+00-5.34788E-01-2.66217E+00-2.86492E+00
 -1      1185-1.31281E+00 5.62861E+01 6.25990E+00-4.46648E-02 2.68914E+00-1.54112E+00
 -1      1186-2.26061E+00 9.78553E+00-3.11686E+00-1.22864E+00-8.08482E-01 7.32016E-01
 -1      1187-1.60804E+00-1.20122E+01 1.40223E+00-5.85610E-01 6.10490E-01 1.47005E+00
 -1      1188-7.70904E-01 6.22585E-01 3.60435E-01 1.18876E+00 9.54481E-02-9.60601E-01
 -1      1189 1.97088E+00-6.27161E-02-1.58389E-01-1.13251E+00-8.66890E-01-3.11197E+00
 -1      1190 1.05826E+00-4.68118E+01-2.62947E+00 2.53539E+00-1.05254E-02-2.61354E+00
 -1      1191-3.06052E-01 4.73787E+01 3.78910E+00 1.65821E+00-2.98107E-02-2.00209E+00
 -1      1192 3.80243E-02 2.02732E+00 6.23269E-01 3.46444E+00-1.27044E-01-1.01678E-01
 -1      1193 9.28807E-01-1.29641E+00 7.22489E-01 1.04234E+00 2.62872E-01-1.62503E+00
 -1      1194 1.41361E+00-3.58995E+01-1.12334E+00-9.82721E-01-4.28193E-01-9.13347E-01
 -1      1195-1.98645E+00 3.58340E+01 9.11971E-01-1.17978E+00 5.97643E-02-1.13886E+00
 -1      1196-2.64734E+00-7.53830E-01-1.21051E+00-3.14996E-01-8.40260E-02 1.12606E+00
 -1      1197 2.41546E-01-1.74732E-01-1.60906E-01 2.70581E+00 1.47950E-01-2.32028E-02
 -1      1198 1.60787E+00 5.55714E+01 6.60041E+00-1.06778E+00 1.19214E+00-3.80925E+00
 -1      1199 1.49753E+00 2.53753E+01 2.11734E+00 2.47678E+00-1.12085E+00-3.65998E-01
 -1      1200-1.90009E+00-2.59137E+01-2.33818E+00 2.09880E+00 1.09620E+00-5.65132E-01
 -1      1201 6.45951E-02-1.97456E-01-1.69058E-01 1.39406E+00 1.68815E-01 8.28040E-02
 -1      1202 1.70727E+00 2.80705E-01 8.73730E-01 4.67209E-01 7.88051E-02-3.42196E-01
 -1      1203-3.32600E-01 7.16602E-01 1.10436E-01 5.69655E-01-1.66434E-01-9.87285E-01
 -1      1204-1.93190E-01 4.43949E+01 3.26778E+00 3.51391E-01 2.35061E-01-7.01234E-01
 -1      1205-1.55957E+00 1.11587E+01-2.73747E+00 5.92805E-02-8.48113E-01 8.22929E-01
 -1      1206-1.66327E-01 3.48290E+01 1.67944E+00-1.30257E+00 5.92124E-01-3.13200E-01
 -1      1207-3.16374E-01 2.66109E+01 1.86360E+00-1.05429E+00-1.39083E+00-1.38544E+00
 -1      1208-1.74686E-01 1.58218E-02-5.65777E-03 2.71588E-03-4.55929E-03 6.97793E-03
 -1      1209-2.99197E-01 3.29878E-02-3.84426E-02-7.29880E-03-4.70268E-03-4.23908E-04
 -1      1210-3.47228E-01 1.98819E-02-3.61148E-02-1.13623E-03-5.93506E-03 1.46372E-03
 -1      1211-4.49587E-01 3.17882E-02-4.80804E-02 1.04248E-03-5.05771E-04-1.50325E-03
 -1      1212-5.43200E-01 3.55226E-02-7.29717E-02-4.68952E-03-1.24808E-03 2.25957E-03
 -1      1213-6.29569E-01 3.73802E-02-8.32280E-02 2.95866E-03 2.20017E-03 4.07514E-03
 -1      1214-7.00225E-01 7.75670E-02-1.10683E-01 4.79720E-03-1.18148E-02 3.40935E-03
 -1      1215-7.64143E-01 4.62919E-02-1.31022E-01 3.59559E-03-1.43939E-03 5.95415E-03
 -1      1216-8.40280E-01 3.49044E-02-1.87260E-01 5.31022E-02 1.91519E-02-4.73361E-03
 -1      1217-7.69577E-01 2.08877E-01-1.49204E-01 3.52951E-02 1.09202E-02 5.88254E-02
 -1      1218-5.70996E-01 5.53073E-04-3.05017E-01 2.77165E-02-9.27888E-02 1.96301E-02
 -1      1219-6.26516E+00-2.75333E-01-1.58015E+00 9.27655E-01-4.72372E-01 4.54191E-01
 -1      1220-5.06113E+00-9.88375E-01-8.12995E-01 1.33188E+00 3.60539E-01-3.55149E-01
 -1      1221-8.11174E+00-2.98258E+00-4.91661E+00 1.04043E+00 3.17887E-01 1.57932E-01
 -1      1222-6.53993E+00-1.27373E+00-3.10065E+00 5.77962E-01-3.30108E-01-2.56262E-01
 -1      1223-1.56083E+00-7.94711E-02-4.56598E-01 2.06482E-01-1.48608E-02 3.59480E-01
 -1      1224-1.09647E+00-3.54858E-02-1.50970E+00 2.30202E-01 1.77752E-01-6.50367E-01
 -1      1225-2.10229E-01 2.22178E-01-1.81559E-01-2.07249E-01-7.38571E-02 6.47112E-02
 -1      1226-6.13794E-01 1.04005E+00-4.75105E-01 2.16078E-02 3.89338E-01-3.02251E-01
 -1      1227-1.69091E+00 1.34418E+00-9.19216E-02 3.19406E+00 4.11886E-01 1.46831E+00
 -1      1228-4.22416E-01-1.05066E+00-4.66519E-01 1.88315E+00-3.66809E-01-3.93910E-01
 -1      1229-1.00141E+01-2.25550E+00-9.68246E+00-7.42562E+00-6.31069E-01 7.26535E+00
 -1      1230-9.17877E-01 2.27032E+00 6.09151E-03 1.80773E+00 3.72301E-01 1.10516E+00
 -1      1231 1.37680E+00-1.39675E+00-2.30976E-02-1.12803E+00-1.82061E-01 3.12906E+00
 -1      1232-4.44094E-01-2.84608E+00-1.05250E+00 4.26244E+00-4.54616E-01 2.25916E+00
 -1      1233 3.44672E-01 5.57425E+01 8.59181E+00-5.08008E-01-2.72838E+00 2.47035E+00
 -1      1234 1.46849E+00-5.68348E+01-6.15745E+00-4.26825E-02 2.65888E+00 1.15892E+00
 -1      1235-9.55786E-01-1.20295E+01 1.30513E+00-1.99191E+00 2.36657E-01-1.83875E+00
 -1      1236 9.37136E-01 1.16598E+01-1.64356E+00-1.51785E+00-2.80083E-01-1.63658E+00
 -1      1237 5.59351E-01-2.83028E-01-6.94208E-01 1.04849E+00 2.14420E-01 9.40030E-01
 -1      1238-1.94804E+00-4.19148E-01-6.58275E-01-1.00829E+00-5.53745E-01 1.60950E+00
 -1      1239-8.40873E-01 4.80135E+01 3.30180E+00 2.09470E+00 6.83213E-01 2.69105E+00
 -1      1240 8.41475E-01-4.80768E+01-4.80703E+00 2.07030E+00-5.71379E-01 2.28364E+00
 -1      1241-2.33892E-01-1.41567E+00-5.16883E-01 3.22648E+00-4.01053E-02 4.42242E-01
 -1      1242-1.30563E+00 6.15400E-01-1.20292E+00 1.42170E+00 1.89404E-01 2.07020E+00
 -1      1243-1.08725E+00 3.60293E+01 1.28053E+00-1.93766E-01 6.56433E-01 8.09475E-01
 -1      1244 1.85612E+00-3.62017E+01-1.11742E+00-4.08469E-01-6.59888E-01 1.02246E+00
 -1      1245 2.64492E+00 1.23016E+00 1.45828E+00 3.45112E-01 1.60830E-01-3.71680E-01
 -1      1246 2.49003E-01 4.59513E-01 2.78996E-01 1.84039E+00 1.04437E-02 5.73851E-01
 -1      1247-1.43271E+00-5.55861E+01-6.51129E+00-8.11476E-01 1.21562E+00 3.75390E+00
 -1      1248 2.80491E+00-2.05285E+01 2.92069E+00 1.62549E+00-8.45948E-01-2.67673E+00
 -1      1249-2.53789E+00 2.06856E+01-2.75030E+00 1.22669E+00 7.43407E-01-2.60037E+00
 -1      1250 9.49587E-01 3.88023E-01 2.65737E-01 1.93992E+00 1.46262E-02-1.12148E-01
 -1      1251-1.20909E+00-5.25060E-01-6.17979E-01 4.08033E-01-1.09679E-02 6.36322E-01
 -1      1252-1.31571E+00 2.31526E+01-2.50713E+00 5.02458E-01 6.06593E-01-1.90701E-01
 -1      1253 2.22953E+00-2.26584E+01 2.85672E+00 1.64761E+00-6.46092E-01-2.19290E-01
 -1      1254-5.34464E-01-4.66879E+01-5.30403E+00 9.49979E-01-4.20534E-01 2.05347E+00
 -1      1255-3.29607E+00-1.36165E+01 6.74145E-01-1.20243E+00 3.88027E-01-4.55015E-01
 -1      1256-1.04849E-01-3.59757E+01-1.73744E+00-1.11822E+00-4.82828E-01 3.76698E-01
 -1      1257 6.01568E+00 3.28182E-01 1.42750E+00 1.41147E+00 6.63493E-01 3.49546E-01
 -1      1258 2.45348E+00 3.56656E+00 1.63030E+00-9.18229E-01-2.07243E-02-9.45993E-02
 -1      1259 5.73533E-01-8.26454E-01-2.50110E-01 1.11917E-01-1.35394E-01-1.56582E-01
 -1      1260 1.27449E+00-9.02366E-02 1.45694E-01 1.67922E-02 1.36637E-02-1.26894E-02
 -1      1261 1.18966E+00-1.98032E-01 9.82406E-02 2.06951E-02-1.19112E-02-3.07395E-02
 -1      1262 9.22276E-01-5.15940E-03 1.09950E-01-3.95444E-03 1.76268E-02-3.03295E-03
 -1      1263 8.35134E-01 3.12076E-02 1.06127E-01-1.80656E-05-6.79006E-03 8.45316E-03
 -1      1264 7.39899E-01 9.83123E-04 1.05973E-01 1.11241E-02-1.75011E-02 5.79058E-03
 -1      1265 6.31358E-01-5.27128E-02 5.07461E-02-2.53208E-03-1.22939E-02 1.68586E-02
 -1      1266 1.07101E+00-2.43049E-02 1.08342E-01-6.69864E-03-6.85575E-03-3.17869E-03
 -1      1267 1.13501E+00-1.46523E-02 1.45252E-01-1.74913E-03-1.11332E-02-2.58861E-03
 -1      1268 1.18475E+00-1.14828E-01 1.33098E-01-1.07054E-02 1.98612E-02-5.97809E-04
 -1      1269 1.06495E+00 3.11623E-01 5.21419E-01-6.86060E-02 2.18653E-01-8.18440E-02
 -1      1270 1.48403E+00-5.51471E-01 4.60687E-01-9.02599E-02 3.76290E-01 2.52507E-01
 -1      1271 1.12194E+00 6.83933E-02 1.73735E-01-1.37063E-01 2.72587E-01 2.61435E-01
 -1      1272 5.89809E+00-8.53928E-02-2.51990E-02-7.32983E-02-2.57741E-01-4.30731E-01
 -1      1273 5.60078E+00 2.26606E+00 2.71155E+00 4.87917E-01-2.30000E-01 6.54884E-01
 -1      1274 5.50660E+00 2.39786E+00 2.46459E+00 5.75395E-01-3.96423E-02-7.52127E-02
 -1      1275 1.03425E+00 9.25464E-02 1.52855E-01 4.47819E-03-1.41499E-02-7.53862E-04
 -1      1276 1.08687E+00-8.47299E-01-1.30910E-01-4.06442E-02 9.28178E-02 2.08505E-02
 -1      1277-2.62272E-02 6.72259E-01 2.66421E-02 1.28994E-02-2.83955E-03 2.67668E-02
 -1      1278 4.19160E-02 6.01646E-01 7.75511E-02-1.80722E-02-5.98957E-03-8.90684E-03
 -1      1279-1.01046E-01 2.96661E-01-8.16128E-03-2.62210E-02-3.86893E-03 1.84134E-02
 -1      1280-1.18265E-03-2.56600E-01-1.07956E-02-1.17047E-03 5.48147E-05-2.91532E-03
 -1      1281 5.49760E-03-2.35471E-01-1.65206E-02-5.70518E-03-3.31443E-03-1.62413E-03
 -1      1282-1.16599E-02-1.81656E-01-1.61730E-02 3.51940E-03 2.06744E-03-7.49545E-04
 -1      1283 2.29802E-01 1.71965E-01 1.00778E-01 6.26035E-02-1.10785E-02-4.83608E-03
 -1      1284-4.40445E-02-2.65743E-01-1.82671E-02-1.19102E-03-2.73197E-03 2.80422E-03
 -1      1285-1.02641E-01-8.49357E-02-2.91272E-02 8.02344E-03-1.19499E-03 1.55276E-02
 -1      1286 5.55428E-02-1.97671E-01 3.06064E-02-1.94784E-03 3.17716E-03-8.35751E-03
 -1      1287-6.05494E-02-2.06273E-01-2.09402E-02 8.54056E-03 2.67649E-03 5.13122E-03
 -1      1288 1.00469E-01-9.08816E-02 5.11406E-02 7.01122E-03 3.94661E-03-7.28157E-03
 -1      1289-6.95568E-01-3.74933E-03-5.79772E-02-8.07021E-03 1.84409E-02-1.78852E-02
 -1      1290-6.70827E-01-1.61882E-02-3.66198E-02-1.25628E-02-3.66433E-03 2.96243E-03
 -1      1291-5.45155E-01-1.43765E-02-1.55540E-02-1.97778E-03 8.12518E-03 4.63234E-03
 -1      1292-4.54604E-01-1.41622E-01-6.87195E-02 9.28192E-05-1.43152E-03 6.99137E-03
 -1      1293 7.64465E-01 1.37057E-01 8.54593E-02 8.07566E-03 4.22727E-03 1.58954E-02
 -1      1294 8.58965E-01-5.59670E-03 4.94304E-02 1.50940E-02-2.51502E-03 9.00722E-03
 -1      1295 8.79806E-01 5.03199E-02 7.44481E-02 5.67253E-03 1.41740E-02 2.19184E-02
 -1      1296-1.76576E-01 1.29748E-01 4.01976E-02-1.37483E-02 1.75813E-02 1.16562E-02
 -1      1297-1.45183E-01-2.47480E-01-1.00050E-01 2.16787E-02-1.34378E-02 2.76792E-04
 -1      1298 4.75182E-01-8.41242E-02-1.33939E-02 2.41038E-02-7.55490E-03 2.01983E-03
 -1      1299 4.60754E-01 2.64144E-01 1.18327E-01 1.00276E-02 1.50666E-02 1.76598E-03
 -1      1300 1.61177E-01-1.15588E-01-4.88543E-02 9.13913E-03-1.12647E-02-1.19723E-02
 -1      1301 1.03708E-01 1.58112E-01 6.99975E-02-1.05290E-02 1.69616E-02-2.39919E-03
 -1      1302 5.08026E-02-1.27118E-01-4.38968E-02 8.73834E-03-1.51810E-02-1.03756E-02
 -1      1303 2.28221E-01 1.88774E-01 9.11355E-02 7.84572E-04 1.71902E-02-7.81945E-03
 -1      1304 1.71566E-02-5.87827E-02-3.91906E-02-8.20177E-03-2.11436E-03-4.95443E-03
 -1      1305-4.67851E-02-4.68758E-02-2.47951E-03 2.45096E-03-4.72290E-03 1.75135E-03
 -1      1306 1.85875E-02-8.52951E-03 2.52508E-02-1.49621E-03-2.24786E-03-2.37334E-03
 -1      1307-1.54350E-02-2.71613E-02-3.92020E-03-5.17572E-03-3.58979E-05 2.02249E-03
 -1      1308 3.17212E-02-4.04046E-02 2.78912E-02 1.27563E-02 2.62655E-03 1.50619E-04
 -1      1309 2.75270E-02-1.44716E-01 4.92496E-02-2.44112E-03 2.23626E-03 1.36091E-02
 -1      1310 2.88242E-02-1.88221E-03 9.34827E-03 3.71171E-03 1.35235E-03 6.04723E-04
 -1      1311-1.32753E-02-1.02315E-02 8.39621E-05-5.13431E-04 6.24612E-04-1.38024E-03
 -1      1312 1.65532E-03-6.20788E-03-5.39645E-04-2.99918E-03-2.52248E-04 1.87512E-03
 -1      1313 1.71354E-04-2.62573E-04 3.02886E-03 2.43559E-04 6.02723E-04-7.13301E-04
 -1      1314-7.40036E-04-1.02327E-03 7.98036E-04-3.87686E-04 3.37810E-04-2.16973E-04
 -1      1315 2.06206E-03-1.28789E-03 7.74336E-04 1.02525E-03 1.68700E-04-8.27289E-04
 -1      1316 8.37096E-01-3.12040E-02 2.68265E-02-3.31342E-02-2.19402E-02-2.15341E-02
 -1      1317-1.37877E-01 8.53488E-02 1.44988E-01-1.07869E-02 6.09521E-03-5.11411E-03
 -1      1318 1.04855E+00-1.90327E-02-1.69940E-02-1.31596E-02-2.23725E-03 9.04565E-03
 -1      1319 1.11708E+00-4.12728E-03 1.55531E-02 1.20314E-02-6.92118E-04 6.23473E-04
 -1      1320 1.05609E+00 1.63088E-02 1.42771E-03 5.92480E-03-1.83122E-03-6.45034E-03
 -1      1321 9.17931E-01 3.77216E-03-3.24787E-03-4.41354E-03 2.09522E-03 1.46397E-03
 -1      1322-3.70005E-01-7.85208E-03 1.61596E-02 1.33999E-03-3.82285E-03-4.75645E-03
 -1      1323-5.73754E-01-2.69799E-02 5.08266E-03 1.46358E-02 5.30056E-03-6.25946E-03
 -1      1324-6.82614E-01 4.43374E-03 1.21687E-02 4.02816E-03-5.16572E-04-3.17809E-03
 -1      1325-7.30933E-01-2.79225E-02-1.64406E-02-4.77964E-02 6.95806E-03-2.89507E-02
 -1      1326-5.91802E-01 3.80244E-02-1.43128E-02-7.70720E-03 9.45922E-03 3.59209E-03
 -1      1327 7.17450E-01 2.22853E-02 5.59589E-03 1.74453E-02-2.16517E-02-1.29205E-02
 -1      1328 5.48549E-01 3.92120E-02 1.34594E-02 1.04665E-03 1.81669E-02 4.95481E-03
 -1      1329-2.08284E-01-1.33216E-02 1.23486E-02 2.13055E-02 1.49117E-02 4.11761E-03
 -1      1330-2.75819E-03-7.12417E-03 1.64667E-02-2.50500E-03-4.90249E-03 2.30788E-03
 -1      1331 3.52466E-01-1.02425E-02 5.27361E-03 8.01153E-03-7.66183E-03-6.58329E-03
 -1      1332 2.57901E-01 1.71730E-02 3.37893E-03-1.61569E-03 8.96728E-03 6.29404E-03
 -1      1333 1.88375E-01 1.29102E-02 1.12913E-02 4.76919E-03-1.21067E-02 6.09467E-03
 -1      1334 1.05720E-01 1.66036E-03 5.29189E-03 8.48149E-03 9.35519E-03 1.06551E-02
 -1      1335 4.63992E-02 5.93573E-02-6.07294E-03 7.71933E-02 1.23391E-02-1.19675E-02
 -1      1336 3.50305E-02-2.31142E-02-2.12346E-02 9.11870E-02 3.81206E-03 1.00697E-02
 -1      1337 5.78539E-02-1.27304E-04 1.62769E-04 5.03087E-02-6.91142E-03 7.28848E-03
 -1      1338 8.63955E-02 1.37011E-01 1.68169E-02 4.98501E-02 8.60348E-04 8.93763E-03
 -1      1339 1.57998E-01 1.26679E-01-6.56907E-03 4.78312E-02 2.15686E-02 1.87218E-02
 -1      1340 6.66260E-02 1.59482E-01-6.93978E-02 5.43095E-02 2.66598E-03 9.03298E-03
 -1      1341 9.86397E-02 2.50031E-01 1.36763E-02 4.15010E-02-1.12276E-02 2.17768E-03
 -1      1342 1.52453E-04 4.89484E-01-1.57783E-01 1.50974E-01 4.39977E-03 9.20800E-02
 -1      1343-1.06139E-01 1.65012E-01 5.21054E-02 1.24027E-01-2.00291E-03 1.01203E-01
 -1      1344 3.52379E-01-5.03200E-02 3.26276E-01 1.00989E-01-6.99343E-02 1.95504E-02
 -1      1345 2.67543E-01-2.26953E-01 8.94492E-02 4.84262E-02-8.24260E-02 3.56666E-02
 -1      1346 2.43420E-01-1.13809E-01 1.10136E-01 4.12682E-02 3.00452E-02 7.75261E-03
 -1      1347 2.39577E-01-1.62766E-01-8.31816E-03 3.98185E-02 1.92244E-02-2.55494E-03
 -1      1348 2.34007E-01-6.48658E-02 6.13123E-02 4.34895E-02-2.38029E-02-7.45456E-03
 -1      1349 3.13011E-01-9.50728E-02 3.55296E-02 4.91057E-02 1.73634E-02-1.62804E-02
 -1      1350 2.40738E-01-7.12738E-02 4.79630E-02 5.61226E-02-8.93111E-03-3.19995E-03
 -1      1351 2.91925E-01-7.05808E-02 2.52848E-02 6.73119E-02-1.52072E-02 2.08426E-03
 -1      1352 2.76317E-01-2.26476E-03 7.41316E-03 7.15925E-02 1.05726E-02-5.42198E-02
 -1      1353 1.71681E-03-1.77470E-02 1.55821E-02 2.85980E-01-3.19510E-02-2.20596E-02
 -1      1354 2.84297E-01-1.26826E-01 2.52604E-02 1.25577E-01-2.75801E-02-1.25448E-02
 -1      1355 1.46464E-02 2.44551E-02 1.08320E-03-6.73516E-03-6.20475E-04 1.17629E-03
 -1      1356 2.17521E-03 2.44859E-02 1.09324E-03 7.72568E-03 2.55681E-03-3.18362E-03
 -1      1357 4.96231E-03 4.32228E-02-3.37848E-03 2.52756E-02-6.29846E-03 2.94279E-03
 -1      1358-3.24029E-03 2.98445E-03-3.66374E-03 4.97835E-02 4.03518E-05-5.72037E-03
 -1      1359 4.31068E-02 3.69277E-02 1.71167E-02 5.41265E-02-1.54688E-04 2.49132E-03
 -1      1360 5.10653E-02-4.31681E-02-1.49481E-02-4.56266E-02 1.89977E-02 1.91844E-02
 -1      1361 1.10751E-01 1.94662E-02-1.40258E-02-1.69003E-02 1.32829E-02-1.70935E-02
 -1      1362 7.44374E-03 9.77178E-03 1.40240E-04-7.48592E-03-1.75021E-03 6.65067E-03
 -1      1363-7.27681E-03-2.90545E-03-4.67203E-03 5.34991E-03-8.38535E-04-8.43674E-04
 -1      1364 1.91385E-03-2.25346E-03 7.31643E-04 2.64522E-03 4.22791E-04-1.71269E-04
 -1      1365 1.10029E-02-6.76336E-03 1.09333E-03-3.46099E-03-4.34810E-04 1.13833E-03
 -1      1366 1.60879E-02-1.15593E-02-4.87801E-04-1.21819E-02 2.28152E-03-2.62688E-04
 -1      1367-1.53786E-02-4.59163E-02 1.69446E-03-4.69960E-02-6.47460E-03-7.75178E-03
 -1      1368-1.28179E-01-3.51688E-02 1.71838E-02-6.75140E-02 1.99939E-02 2.17180E-02
 -1      1369-2.67922E-01-4.30996E-02-3.72400E-03-4.72771E-02-4.00185E-03 5.90926E-03
 -1      1370 1.74855E-01 7.50751E-02-1.59587E-04 6.97551E-02 1.31882E-04-3.31758E-02
 -1      1371 3.42050E-01-6.85804E-02-9.00628E-03 9.81746E-02 5.47337E-03 9.88683E-03
 -1      1372 2.54732E-01-1.02192E-02 3.02317E-04 2.61221E-02-2.98701E-02-9.71333E-03
 -1      1373 1.76374E-01-1.47634E-03 1.97735E-03-7.81638E-02 8.74997E-03-5.73462E-03
 -1      1374 2.77917E-01-9.57555E-03 1.04744E-02-7.09992E-02-4.42383E-02-2.69252E-02
 -1      1375 1.35982E-01 6.36683E-02 5.07614E-03-9.69277E-02 3.52456E-02-1.68738E-02
 -1      1376 1.21635E-01-3.47009E-02-2.81047E-03-6.61495E-02 4.26483E-03 1.17046E-02
 -1      1377 7.39494E-02-2.50926E-02 9.53597E-03-8.16084E-02 2.49788E-02 4.70950E-03
 -1      1378-1.27881E-01 1.70717E-01-2.56743E-02 2.42542E-01-1.28746E-02-1.03095E-02
 -1      1379-1.19148E-01 1.04143E-01 1.45982E-04-1.36169E-01-1.06229E-02 9.99539E-04
 -1      1380 1.31564E-01 6.43817E-02-9.52323E-03 5.35798E-02-3.76834E-04 9.42213E-03
 -1      1381 2.90309E+00-3.41818E+00-3.03689E-01-1.29042E+00 5.67065E-01 1.81758E-01
 -1      1382-3.78223E-01 2.80441E-01-7.13043E-01 4.86921E-02-4.42292E-01 2.54634E-02
 -1      1383-1.16831E+00-7.63163E-01-1.02839E+00-3.48678E-01-3.12770E-01-2.52739E-01
 -1      1384-2.09610E+00 3.67371E+00-1.31541E+00-7.83898E-01-3.40077E-01 3.80341E-01
 -1      1385 2.15740E-01-1.05862E-01 7.56312E-02 3.57133E-02-2.22400E-02-1.16937E-02
 -1      1386 4.28031E-03-3.57773E-04-5.93089E-05-2.31692E-03-8.47050E-05-5.42120E-04
 -1      1387 5.19407E-02-1.34219E-02 1.16658E-02-9.82951E-02 1.70191E-02 2.98252E-03
 -1      1388 7.90117E-02 1.57753E-01 1.47344E-02 1.18144E-03-3.17395E-02-3.16077E-02
 -1      1389 4.85569E-03-5.34451E-02 8.10496E-03-1.27696E-01 1.17990E-02-1.24698E-02
 -1      1390-5.86812E-02 7.74772E-02-1.03231E-02-5.37547E-02 2.14089E-02-2.04272E-03
 -1      1391-1.32238E-02 7.47295E-02 3.17336E-02 9.29124E-02-1.46428E-03 5.37909E-03
 -1      1392 8.20004E-02 3.28658E-02-2.00890E-03 4.27973E-02 1.37192E-03 1.34523E-03
 -1      1393 5.33861E-02 9.90845E-02 1.03301E-02 3.71637E-02 1.09049E-02 1.26702E-02
 -1      1394 2.79300E-01-1.32687E-01 4.34679E-02 2.49926E-02 2.23789E-02-1.67816E-02
 -1      1395 1.17448E+00-7.74830E-01 6.90822E-02-7.16025E-01 1.92772E-02-3.98321E-02
 -1      1396 6.71529E-01-3.18015E-01 1.33920E-02-1.64743E+00-2.10600E-02 1.89924E-02
 -1      1397 2.50926E-01-6.21589E-02 4.13652E-03 1.03624E-01-1.82730E-02 4.77395E-03
 -1      1398 3.15018E-01 2.10395E-02 8.03815E-03-5.65461E-02 3.00180E-03 1.98548E-02
 -1      1399 9.51050E-02 4.74116E-02 1.80323E-02 5.18160E-02 7.02425E-03-4.87063E-03
 -1      1400 4.71132E-03 4.06249E-04-1.97613E-03 4.56684E-04-3.12655E-04 1.95014E-04
 -1      1401 1.51047E-01-4.81342E-02 6.34749E-03-4.13811E-02-2.04467E-02 9.35926E-03
 -1      1402 2.51454E-01-3.49000E-02-3.61821E-03-5.54803E-02-6.87399E-02-9.61941E-03
 -1      1403 1.38736E-01 6.87523E-02 1.27617E-03-4.23159E-02 2.55565E-03 2.98703E-03
 -1      1404 4.19821E-03 6.76313E-03 7.38409E-03-3.58258E-02-1.83993E-03 9.58936E-04
 -1      1405 1.18856E+00-2.07210E-02 4.15417E-01 9.21062E-02-8.08717E-02 9.27488E-02
 -1      1406 3.75857E-01-9.10240E-01-5.34292E-01 2.53806E-01 2.12177E-01-4.49320E-02
 -1      1407 8.79815E-02 3.79519E-03 1.96418E-02-6.08808E-02 5.66980E-02 4.51690E-03
 -1      1408 6.22247E-03-2.87128E-06-2.58758E-04-3.89267E-04 2.12318E-05-2.50998E-04
 -1      1409-6.88488E-01 6.92614E-01 7.20725E-02 1.54161E-01 8.61870E-02 7.24538E-02
 -1      1410 7.53987E-02-1.25902E-01-1.44099E-02 1.51219E-02 2.31090E-02 1.01037E-01
 -1      1411-5.87672E-01 7.15414E-01-2.11604E-02-1.31157E+00 2.08459E-03 4.44848E-02
 -1      1412-5.34361E-01 9.58510E-01 1.12280E-01-3.62043E-01 1.35994E-01-1.67370E-01
 -1      1413 2.22175E-01 2.20992E-01-4.94917E-02-2.36600E+00 6.14452E-02-1.96498E-01
 -1      1414-1.53793E-02 4.07236E-02-8.48684E-03-1.06776E-02 1.03888E-02-4.54443E-03
 -1      1415 1.05350E-02 1.31297E-02 1.13624E-03-1.39720E-02-1.75329E-03-2.34222E-04
 -1      1416-1.93761E-02 3.08328E-02-6.05802E-04-8.26157E-03 3.36944E-03-1.14239E-03
 -1      1417 5.85390E-03 1.33285E-03 1.27901E-04 5.88689E-05-2.00914E-06 5.18398E-04
 -1      1418-8.68680E+00 1.02280E+00-4.17270E+00-5.87340E+00-1.28320E-01 4.23538E-01
 -1      1419 8.48105E+00-1.41020E+00 1.61573E+00-4.32843E+00-1.63786E+00 1.00801E-01
 -1      1420-3.82086E-01-3.02933E-01-3.62077E-01 2.85462E-01 5.64852E-02 3.61773E-02
 -1      1421 1.69582E-01-2.07352E-02-8.04363E-03-4.95466E-03-3.62484E-03-2.51235E-03
 -1      1422 1.41410E-01 3.31069E-02 1.50989E-02-3.43465E-03 3.26674E-02 6.47145E-03
 -1      1423 1.50222E-01-4.32927E-02-8.78160E-03 4.05731E-04-3.75375E-02-1.24574E-02
 -1      1424 5.67669E-01 2.72817E+00 3.38911E+00-2.42494E+00 8.89684E-01-7.54289E-02
 -1      1425 5.50260E-01-1.44523E+00-1.36852E+00-2.81880E+00-6.97052E-01-3.66809E-01
 -1      1426 8.22622E-02-2.21966E-02-1.73325E-02 8.07528E-02 2.84037E-03-5.81162E-03
 -1      1427 9.12034E-03 1.81185E-03 1.45674E-03 8.28589E-02 6.61032E-03-9.26450E-03
 -1      1428 4.89253E-02 3.66520E-02-2.59099E-02 5.36386E-02-1.56789E-03 8.02392E-03
 -1      1429 1.00762E-02 4.34739E-02-7.54829E-03 4.46071E-02 1.02317E-02 1.56604E-02
 -1      1430 1.12417E-01 5.63596E-02-6.59081E-02 3.96115E-02 1.03720E-02-1.93665E-02
 -1      1431 3.48525E-02 7.41679E-02-3.21536E-02 4.69298E-02 2.89804E-03 6.63881E-03
 -1      1432 1.15377E-01 1.04621E-01-8.95062E-02 4.41769E-02 4.43395E-03-1.21998E-02
 -1      1433 6.29621E-02 1.07157E-01-3.63405E-02 5.82675E-02-5.87909E-03 5.73497E-03
 -1      1434 1.08420E-01 2.19360E-01-6.56388E-02 6.02804E-02 1.93859E-02-3.42167E-02
 -1      1435 4.39096E-02 1.05037E-01-1.41525E-01 4.08003E-02-1.66513E-03-1.37222E-02
 -1      1436 2.85754E-01-1.64858E-01 1.09379E-01 4.84865E-02-1.09568E-02-2.06749E-02
 -1      1437 1.76611E-01-3.08622E-01 1.97598E-02 1.06454E-01-5.49643E-02-5.02741E-02
 -1      1438 2.84396E-01-1.01266E-01 3.03687E-03 4.39293E-02-4.74742E-03 1.54487E-02
 -1      1439 2.05419E-01-1.18688E-01 6.26092E-03 5.38878E-02-1.58632E-03-4.75384E-03
 -1      1440 2.94344E-01-7.41811E-02 3.65572E-02 4.99942E-02-1.75679E-02 1.07046E-02
 -1      1441 2.24139E-01-7.32941E-02 1.49971E-02 5.15806E-02-7.88882E-03-5.11910E-03
 -1      1442 3.25188E-01-1.02470E-02-3.48888E-03 7.84221E-02 2.07962E-03-1.88485E-02
 -1      1443 2.42533E-01-3.09469E-02 1.17062E-02 8.05143E-02 1.03790E-02-1.67550E-02
 -1      1444 3.23648E-01-8.79503E-02 5.20079E-03 1.14947E-01 1.49443E-02 3.45621E-02
 -1      1445 7.39391E-02 1.32837E-02 2.66634E-02 2.58242E-01 3.62054E-02 2.17311E-02
 -1      1446-5.98522E-02 1.09652E-01-2.49738E-03-1.75675E-01 2.29913E-02 1.44383E-03
 -1      1447-5.31498E-03-3.57598E-02-1.73914E-02-5.49067E-02 4.26868E-02-1.00979E-01
 -1      1448-3.68975E-02 1.67788E-02-5.75163E-03-1.03503E-01 6.63345E-02-3.23665E-02
 -1      1449 8.25848E-03-8.82344E-02-2.55944E-02-1.06367E-01 3.15071E-02-9.47594E-02
 -1      1450 4.61595E-03 6.60233E-03 1.75778E-03 3.53609E-02-7.60823E-03-5.37706E-04
 -1      1451 2.41712E-03 3.57914E-02 6.77388E-03 1.12939E-02 1.79169E-03-3.18520E-03
 -1      1452-4.14616E-02 5.96957E-02-3.68692E-03 7.63381E-02 1.06492E-02 2.21688E-03
 -1      1453 3.51400E-01 2.86512E-02 1.12262E-02-2.78595E-02-1.33244E-02-9.65313E-03
 -1      1454 2.07153E-03 1.93897E-03-6.47293E-03-4.24060E-03-6.72146E-04 1.35110E-03
 -1      1455 7.07329E-02 1.99231E-02-1.26127E-02-9.37421E-03-7.37130E-03 9.09156E-03
 -1      1456 1.04286E-02-1.23458E-02 4.40498E-03-1.57325E-02-2.80054E-03 6.20469E-03
 -1      1457 7.62923E-03-7.27155E-03-3.44279E-04-5.39850E-03 1.00308E-03 1.22637E-04
 -1      1458-1.36661E-01 4.97948E-04 2.24313E-02-4.21808E-02-1.77489E-02-3.70468E-02
 -1      1459-4.08204E-02-4.30504E-02-8.47882E-03-4.70755E-02 8.41492E-03-6.02047E-03
 -1      1460 2.95314E-01 7.78372E-02 3.95674E-02 8.05840E-02 1.69979E-02-1.59602E-03
 -1      1461-2.50715E-01-7.00720E-02-2.16089E-02-1.46615E-02 4.85821E-03 1.46024E-02
 -1      1462 2.85659E-01-8.88499E-02-1.79067E-02 9.98319E-02-9.65182E-03 2.78052E-03
 -1      1463 1.78875E-01 2.41881E-02 6.61859E-03-7.08284E-02 6.35862E-03-1.26949E-03
 -1      1464 2.26319E-01-2.28252E-02-4.14905E-03-1.85095E-02 2.91099E-02-9.15042E-04
 -1      1465 1.32521E-01 7.73651E-03-5.29484E-03-9.10556E-02 2.33667E-03-1.04039E-02
 -1      1466 2.45632E-01 3.98805E-03-1.53897E-02-6.82402E-02 1.96676E-02 1.64233E-02
 -1      1467 5.84866E-02-2.13285E-02-4.74817E-03 9.00863E-03-4.35001E-02 2.48971E-02
 -1      1468 6.47366E-02-4.16563E-02 4.62772E-03-8.95405E-02-1.36063E-02 8.98835E-03
 -1      1469-7.53437E-02 2.22118E-01-1.73116E-02 1.76780E-01 3.94099E-02 4.27643E-03
 -1      1470 2.60591E-01-1.26787E-01 4.22617E-02 3.86476E-02 8.95857E-03-1.71585E-03
 -1      1471 2.02066E-01-1.19109E-01-1.21412E-03 4.88604E-02 1.62072E-02-9.70720E-03
 -1      1472 1.98618E-01-1.41245E-01 4.13251E-02 4.46825E-02-8.61664E-03-1.23288E-02
 -1      1473 9.02357E-01-1.51600E-01-7.55684E-03 3.30000E-01-3.70543E-01 1.34905E-01
 -1      1474 9.89600E-01-1.97272E-01 1.01526E-01 1.17090E-01 9.43711E-03-1.17120E-01
 -1      1475 1.46128E-01-8.49000E-02-3.75971E-01-5.90592E-02 1.31705E-01-2.04075E-01
 -1      1476 7.71631E-01 4.12326E-01-1.40354E-01 6.86629E-03 1.63306E-01 1.19474E-01
 -1      1477 2.21573E-01 2.77926E-01-2.99867E-01 1.61316E-01 1.48200E-01 9.57534E-02
 -1      1478-6.69116E+00-1.11501E+00-2.10709E+00-3.90064E-01 5.13353E-01-1.20996E+00
 -1      1479-7.73109E-01 2.88820E-01-5.61408E-01-1.92297E-01 1.87009E-01 1.84371E-01
 -1      1480-3.52687E-01 1.04204E+00 3.71802E-02-6.87510E-01 1.94323E-01-4.60415E-02
 -1      1481-6.94492E-01-8.03925E-01-8.24725E-01-1.84892E-01 7.28360E-01-1.19191E-01
 -1      1482 2.24841E+00-2.18027E+00 2.68984E-01-1.09373E+00-5.49057E-01-4.22266E-01
 -1      1483-3.63222E-01 4.98453E-01-3.87177E-02 8.74720E-02-2.17927E-01 8.70671E-02
 -1      1484-3.02772E-01 7.12622E-01 1.16894E-01 6.37927E-01 1.63125E-01 2.70870E-01
 -1      1485 1.62945E-01 4.40411E-01 3.71712E-03-5.98929E-02 8.14400E-02-1.23804E-02
 -1      1486 2.73578E-01-1.09459E-01 2.29330E-02 3.36950E-02 1.41251E-02 6.37024E-03
 -1      1487 8.88038E-02 3.38663E-02-3.28315E-02 3.58376E-02 1.24353E-02-1.82093E-02
 -1      1488 3.59107E-01-1.71872E-01 1.97889E-01 1.72370E-01-9.49183E-02-4.90381E-02
 -1      1489-2.27403E-01 2.48813E-01 4.26530E-01 7.04097E-02 1.25517E-01 1.51777E-01
 -1      1490-4.94497E-01 4.38962E-01-4.65081E-02-3.08653E-01-1.16272E-01-1.15175E-01
 -1      1491-7.75112E-03-6.45960E-04-8.29022E-04 1.15905E-03 1.30972E-03-4.83474E-03
 -1      1492-1.18905E-03-1.44848E-03 4.53383E-04 2.26899E-03 2.82011E-04 8.57839E-04
 -1      1493 1.43961E-01-5.14972E-02-1.04089E-02-5.67343E-02-2.52530E-03-1.07171E-02
 -1      1494 1.38347E-01 9.26594E-03 1.42855E-03-7.67606E-02 4.32255E-03-1.16171E-02
 -1      1495 2.52702E-01-9.81579E-03-5.16897E-03-4.65301E-02 1.19510E-02 2.62153E-02
 -1      1496 4.60741E-02 2.63186E-02 1.94875E-02-9.46343E-02-1.27687E-02 1.33902E-02
 -1      1497 4.60975E-01-1.36168E+00 5.29919E-01 1.01506E-01-1.03155E-01 2.34220E-01
 -1      1498 7.67974E-01-1.93805E-01 1.06639E-02-4.49544E-02 4.73711E-02-2.89770E-02
 -1      1499 5.12433E-01 2.62058E-01-3.34673E-01 2.49585E-01-2.21500E-02 3.38350E-02
 -1      1500 1.02766E-02 5.19950E-01-1.35498E-01-1.80180E+00-2.18948E-02 8.79590E-02
 -1      1501 7.75172E-01-3.80435E-01 1.86891E-01-1.69650E+00 1.44220E-01 2.74366E-01
 -1      1502 8.03976E-03 3.22624E-02 1.91744E-03-3.38597E-03 7.96537E-03 2.75775E-02
 -1      1503 9.24898E-03 1.80183E-02 7.61173E-03-1.81949E-02-3.80194E-04-1.72068E-02
 -1      1504 4.02739E-03-2.12746E-04 7.80438E-04-2.46136E-03 2.69103E-04-3.66655E-04
 -1      1505 1.54006E-01-7.54045E-02-4.60518E-03-3.77750E-02-2.31040E-03-9.06858E-03
 -1      1506 9.27863E-02 3.57464E-02 3.23687E-03-5.82297E-02-4.00763E-03-4.86062E-04
 -1      1507 1.75230E+00-1.12860E+00 1.51693E-01-2.03910E+00-4.70512E-03 2.10342E-01
 -1      1508 8.57188E-01-2.85842E+00-4.84545E-01-3.33223E+00-2.60490E-01 4.33753E-02
 -1      1509-1.52880E+00-2.54092E-03-2.58658E-01-9.17990E-01-1.15103E-01-8.07441E-02
 -1      1510 1.16044E+00-8.36240E-01-2.51120E-02-7.83738E-01 1.15809E-01-9.41346E-02
 -1      1511-2.29007E-01-8.02443E-02 4.06753E-01 2.21946E-01 6.15930E-03 6.96198E-02
 -1      1512 4.34797E-03-3.78188E-04-1.64724E-03-5.85475E-04 1.81286E-04-5.55834E-04
 -1      1513-5.13847E-02 5.63638E-02-9.05117E-03-2.78567E-02 1.49295E-02 3.77972E-02
 -1      1514 2.06459E-03 3.92758E-02-3.31640E-03-1.38259E-03 2.07211E-02 4.11399E-02
 -1      1515-6.59492E-03 1.79292E-02 1.07697E-02-1.11375E-02-7.68028E-03-3.25989E-02
 -1      1516 6.79464E-03 8.21120E-04-1.36846E-03 1.51462E-04-5.89166E-04 1.47818E-03
 -1      1517 1.37612E-01 2.54283E-02 7.20024E-03-2.95486E-02 6.88785E-04 2.19986E-03
 -1      1518 1.90792E-01-2.26429E-02-6.64182E-03-1.15965E-02 3.93764E-04 6.11211E-04
 -1      1519 1.50016E-01-3.28185E-02-1.80581E-02-1.21491E-02 8.12478E-03-1.27806E-02
 -1      1520-5.88785E-01 1.46913E+00 4.64652E-02-2.15717E+00 1.71571E-01-1.16947E-01
 -1      1521 4.63321E+00 3.81511E+00 1.30714E+00-5.15050E+00-4.05454E-01 1.51642E+00
 -1      1522-7.25059E-03-3.10737E-03-3.10733E-03-4.46019E-03-3.25970E-09-4.75826E-03
 -1      1523 4.56402E-02 2.03378E-02 2.12610E-02 3.79973E-02 6.39610E-04 4.38024E-03
 -1      1524 2.24107E-02 8.03546E-03 9.15852E-03-1.94000E-03-2.98884E-04 4.12424E-03
 -1      1525 3.71419E-03 1.33385E-03 1.65395E-03-3.02933E-03-1.17906E-04 1.70910E-03
 -1      1526-9.64902E-03-4.11062E-03-4.12702E-03 1.73002E-03-7.67735E-06-9.75148E-04
 -1      1527 4.51652E-03 1.93565E-03 1.93564E-03-4.81745E-03-4.49988E-09-3.48946E-05
 -1      1528 2.06973E-02 9.42256E-03 9.03491E-03-1.15476E-03-6.26659E-05 3.93914E-04
 -1      1529-2.48772E-02-9.64626E-03-1.02069E-02-2.44078E-03 4.31638E-04 3.25306E-03
 -1      1530-3.63464E-02-1.64569E-02-1.66345E-02-1.67048E-02 1.25203E-03 1.18338E-03
 -1      1531 8.83589E-04 5.24946E-04 4.15764E-04 8.27386E-04-2.23131E-05 2.80491E-04
 -1      1532-1.49425E-03-5.69355E-04-6.85870E-04 1.14538E-04 5.50066E-05-6.05349E-04
 -1      1533 1.18403E-03 5.33930E-04 5.17238E-04-4.83595E-05-7.70903E-06-2.15332E-04
 -1      1534 7.22969E-04 3.00610E-04 2.46088E-04 2.02300E-04 1.15954E-06-2.17700E-04
 -1      1535 1.30604E-03 5.59734E-04 5.59734E-04-5.86346E-04-6.99885E-10-1.34098E-04
 -1      1536 1.39658E-03 6.31989E-04 6.06989E-04-4.19707E-05-1.53821E-06-2.15070E-05
 -1      1537 3.55311E-02-2.42647E-01 6.69822E-02-2.60630E-02 6.88552E-03 4.87817E-03
 -1      1538-5.75414E-03 5.34147E-02-3.79800E-03-1.22953E-02 2.64676E-03 2.06412E-03
 -1      1539-1.27244E-02 1.69619E-01-4.91473E-03 3.33434E-03 7.54561E-03 6.18096E-03
 -1      1540 4.75107E-02-6.09514E-01 2.99028E-03 4.61630E-03 1.51988E-02-8.85754E-03
 -1      1541-3.01871E-02-6.22403E-01-2.52602E-02 1.09822E-02 3.24383E-02 1.39151E-03
 -1      1542-1.74667E-02-3.97768E-01 1.93115E-02-4.10792E-03 1.28843E-02 1.59558E-02
 -1      1543 8.00775E-03-1.55128E-01 4.00444E-02 4.89105E-03-7.54406E-03-8.69509E-03
 -1      1544-4.45559E-04 3.05118E-01 4.90632E-03-3.22738E-03 5.00252E-03-2.45826E-04
 -1      1545-3.10990E-04 2.62681E-01 1.03377E-03 3.86045E-03 1.03123E-03 8.27240E-04
 -1      1546 3.02764E-03 8.76315E-02 2.61390E-02 1.36171E-02 6.28010E-03 1.15091E-02
 -1      1547-2.63556E-03 3.12941E-01 5.83751E-03-2.03030E-03 2.38054E-03-1.68471E-03
 -1      1548 2.19906E-02 3.05781E-01 1.69404E-02 3.97159E-03 9.10995E-03 9.65102E-03
 -1      1549 8.68328E-03 1.87877E-01 1.08535E-02 1.33875E-02-1.03113E-02-1.22564E-02
 -1      1550 6.53025E-03 2.62629E-01 5.57148E-03-1.01824E-03-4.14795E-03-4.26236E-03
 -1      1551 1.46388E-02 2.42611E-01 1.42448E-02 3.28299E-03-3.10227E-03 7.75172E-03
 -1      1552 5.39494E-02-6.62767E-03-2.98629E-02-1.31285E-02 1.37532E-03 1.20611E-03
 -1      1553 1.66994E-01 1.43365E-02 3.99379E-02-1.38690E-02-3.51557E-03 3.78775E-03
 -1      1554 1.85789E-01 8.70145E-03-1.47631E-02-2.78388E-04 4.23660E-03-4.16533E-04
 -1      1555 2.74442E-01 1.65223E-02-2.07307E-02-7.96620E-03-5.48806E-03-2.20941E-03
 -1      1556 3.62633E-01 3.20350E-03-3.60789E-02-3.38656E-03 1.61196E-03-1.54210E-04
 -1      1557 4.26367E-01-3.48949E-02-6.21149E-02-2.01041E-02-2.35469E-03 4.36076E-03
 -1      1558 5.21332E-01-7.38569E-03-5.51043E-02-4.12807E-03 6.74662E-03-8.54325E-03
 -1      1559 6.12669E-01-2.38656E-02-9.29030E-02-9.56313E-03-2.92856E-03 6.05457E-04
 -1      1560 7.24514E-01-1.99225E-02-1.08328E-01-9.59756E-04 4.02192E-03-3.27302E-03
 -1      1561 8.09934E-01-5.84216E-03-1.23221E-01-1.89545E-02-8.57219E-03-1.19971E-03
 -1      1562 8.78523E-01-1.50444E-02-1.79839E-01-4.46265E-03 6.08960E-03-1.17840E-02
 -1      1563 9.43830E-01 2.24065E-02-2.28428E-01-2.42165E-02-9.80971E-03-1.64789E-03
 -1      1564 9.40281E-01-4.80768E-02-2.20878E-01 5.56019E-03 5.55413E-02-4.13107E-02
 -1      1565 1.05215E+00-1.02760E-02-1.58584E-01-2.53884E-02-4.32132E-02 2.51998E-02
 -1      1566 1.14820E+00 3.08148E-01-1.81898E-02 1.32969E-01-1.21182E-01 8.97651E-02
 -1      1567 3.63240E-01-4.42517E-02-8.22560E-02 4.95190E-02 5.06144E-02-1.24350E-02
 -1      1568-4.98411E-01 1.33597E-01 2.40483E-02-3.72493E-03-8.62232E-02-6.58016E-02
 -1      1569-9.55220E-01-6.91698E-02-4.74233E-02 9.06528E-02 8.73568E-02-8.94485E-02
 -1      1570-9.39161E-01-1.65464E-01 2.93798E-02 2.33852E-02 8.52210E-02 2.53000E-02
 -1      1571-7.35708E-01 9.86186E-02 2.44865E-01 1.13042E-02 3.55538E-03 1.18654E-02
 -1      1572-6.96483E-01-7.16545E-02 1.77120E-01-1.46367E-02-3.03605E-03 2.04699E-02
 -1      1573-5.94775E-01-5.55321E-03 1.52969E-01-1.04001E-02-7.72538E-03 3.70358E-03
 -1      1574-5.56723E-01-8.03081E-02 9.31272E-02-7.82515E-03 2.14860E-02 4.76400E-03
 -1      1575-2.31601E-01 1.45502E-03 9.26812E-02-5.51626E-04 1.45394E-02-1.44769E-03
 -1      1576-1.47783E-01-3.08603E-02 7.57824E-02-1.14996E-02 1.39989E-02-6.84069E-03
 -1      1577-5.46480E-02 5.90517E-03 7.57688E-02-5.23422E-03 1.46891E-02-4.76117E-03
 -1      1578 4.58852E-02 4.75532E-03 2.47364E-02-7.29159E-03-1.82513E-02 3.61308E-05
 -1      1579-3.75986E-01-7.12281E-02 8.53527E-02-1.03630E-02 2.02866E-02 3.43384E-03
 -1      1580-4.26177E-01-5.98619E-04 1.27489E-01 7.60814E-04 2.09812E-03 5.98288E-03
 -1      1581-5.69962E-02-3.41046E-02 3.96931E-02-1.75055E-02-1.99428E-03 1.57359E-03
 -1      1582-9.02188E-02-8.25883E-02-5.41074E-03 6.12103E-02 3.44889E-02-1.33428E-02
 -1      1583-1.42043E-01-1.75234E-02 2.93319E-02 2.09329E-02 1.07742E-02 2.03730E-02
 -1      1584-1.47612E-01-2.26085E-02 8.07319E-03-1.03386E-03 5.50368E-04 8.60598E-03
 -1      1585-2.99828E-02-9.52106E-02 1.29842E-01 1.07776E-01 1.55282E-03-2.10439E-02
 -1      1586-2.43572E-01-2.92664E-02-3.56794E-03 1.31865E-01-1.83268E-02 1.24346E-01
 -1      1587-8.93179E-02-9.24699E-02 4.61246E-02 1.88702E-01 4.47467E-02 2.74033E-02
 -1      1588 4.90328E-01 1.84091E-02-4.03452E-03 3.27724E-02 2.37178E-02 1.04716E-02
 -1      1589 7.30627E-02 2.11310E-02-5.71816E-03 5.39645E-02 1.05736E-02-1.64869E-02
 -1      1590 4.21197E-02-1.35962E-02 1.38194E-03 3.48126E-02-1.12558E-02 8.64932E-03
 -1      1591-3.33047E-01-1.98995E-02 1.82808E-02 2.08091E-02-1.88730E-02-1.30099E-02
 -1      1592-2.93900E-01-1.22838E-02-1.45156E-03-9.31898E-04-1.39694E-03-2.19595E-04
 -1      1593-3.34941E-01-1.63240E-02-4.67274E-03 4.00019E-02-1.78555E-02 1.90456E-02
 -1      1594-3.83203E-01-2.16986E-02-3.30995E-03 1.33808E-03 2.94126E-03-1.96856E-03
 -1      1595 7.56049E-01 2.39450E-02 3.21070E-03 4.20495E-02-9.41301E-03-3.85152E-02
 -1      1596-3.55272E-02-7.80064E-04-1.69944E-02 4.77928E-02 1.38301E-02 1.83206E-03
 -1      1597 1.82374E-01-2.40059E-02-3.17174E-02 5.39617E-02-3.98855E-03 1.42585E-02
 -1      1598-6.14566E-01 1.61846E-02 3.22639E-03 4.63202E-02-1.36612E-02 2.67893E-02
 -1      1599 6.88997E-02-6.40102E-04-1.27486E-03 4.75674E-02-7.71379E-03 2.10704E-02
 -1      1600-2.41242E-01-1.69322E-02-3.85702E-02 4.11742E-02-7.80466E-03 3.11240E-02
 -1      1601 3.11465E-01-3.63646E-03 2.46454E-02 3.72644E-02 1.17720E-02-2.53131E-02
 -1      1602-1.68504E-03-8.43759E-03-6.31917E-03 5.55155E-02 6.97868E-03-1.94627E-02
 -1      1603-8.91913E-02-8.13878E-02 4.77558E-03 5.77183E-02-2.75664E-02 1.80634E-02
 -1      1604 3.71984E-01-4.47134E-02 1.28150E-03 1.37752E-01 1.11762E-01-7.25515E-02
 -1      1605 1.13365E-01 5.34716E-02-1.99693E-02 2.76082E-01 4.08249E-02 3.66676E-03
 -1      1606 8.43908E-02-6.06632E-01-7.50562E-02 9.47173E-02-7.79839E-02-2.21708E-02
 -1      1607-3.39525E-02-3.56116E-01-2.46304E-02 1.90084E-01-1.52279E-01 3.22289E-02
 -1      1608-1.08274E-03-1.37608E-01 1.84187E-03-8.95916E-03 1.89156E-03-7.35654E-03
 -1      1609-1.42222E-02 1.91670E-01 5.86710E-03 5.45556E-02-3.10520E-02 5.75861E-03
 -1      1610-9.41719E-03 3.50868E-02 5.58873E-03 4.76074E-02 8.05175E-04 2.15948E-04
 -1      1611-8.90362E-03 2.37951E-01-4.39221E-03 2.76229E-02-9.70917E-03 3.96184E-03
 -1      1612-9.60917E-02-7.25321E-02 9.75267E-02 1.85480E-01-5.53835E-02-3.93721E-02
 -1      1613-2.35362E-01 3.23465E-02 4.12637E-02-1.06177E-02-1.27091E-02 2.18581E-03
 -1      1614-3.67904E-02-1.57421E-01-1.72887E-02 2.26502E-02 4.00127E-02-3.43447E-04
 -1      1615 4.39940E-02-3.16023E-02 1.62737E-02 5.72442E-02 1.99064E-02 1.11332E-02
 -1      1616-5.81795E-01-7.13843E-02-1.14635E-02 1.77832E-02-8.97101E-03 2.01207E-02
 -1      1617 8.36572E-01 1.66805E-01 4.73816E-02-4.90469E-02 2.03932E-02 6.21674E-02
 -1      1618 7.47906E-01-1.18884E-02 1.45660E-02 9.13894E-03 1.66206E-02 2.24387E-02
 -1      1619 7.97398E-01 9.14626E-04 2.48892E-02-8.60955E-03-1.28611E-02 5.45356E-03
 -1      1620 8.46738E-01 7.35433E-02 4.26788E-02-8.41099E-02-3.00562E-02 2.01697E-02
 -1      1621 7.05780E-01 5.24089E-01 1.17724E-01 4.55722E-03 1.59001E-01 1.08193E-01
 -1      1622 9.44588E-01 6.95006E-02 1.95905E-02-1.90472E-02-1.46867E-02 5.82378E-03
 -1      1623 9.81412E-01 5.27025E-02 9.07697E-02 1.02096E-01-9.63490E-04-3.70869E-02
 -1      1624 8.50404E-01-1.09632E-02-1.61952E-02-9.77182E-03 3.08118E-03-8.06803E-03
 -1      1625 8.94918E-01 4.57361E-02-9.96542E-03 6.01356E-02-9.81622E-03-3.86752E-02
 -1      1626 4.85175E-01-1.36597E-02 6.89560E-03 3.28134E-02 3.10908E-02-2.11869E-02
 -1      1627-2.64461E-02 1.93618E-02 3.27244E-03 3.63538E-02 1.94714E-03 3.47633E-03
 -1      1628 5.83886E-01 1.55063E-02-3.73186E-03 3.16948E-02-9.97902E-03-2.86921E-02
 -1      1629-1.02730E-02-2.16754E-01-1.04988E-02 1.87686E-02 1.66896E-02-7.50701E-03
 -1      1630 3.37451E-01-9.16819E-01-7.25575E-01-2.76258E-01-3.07192E-02 4.44563E-02
 -1      1631 7.77955E-01-1.37087E+00 6.66166E-01-1.40838E+00 3.00451E-01-8.20144E-03
 -1      1632 1.94533E-02-3.34631E+00 4.02683E-01 2.93268E-01-6.86224E-01 4.37433E-01
 -1      1633 1.92352E-02 2.14488E-03-1.16053E-03-3.59030E-02-7.38339E-03 1.95568E-02
 -1      1634 1.81530E-01-5.67245E-02 2.32646E-03-3.87997E-02 1.26552E-03-2.55708E-04
 -1      1635 1.13869E-01 5.58793E-02 1.00839E-02-5.98965E-02-1.09428E-02 2.15602E-03
 -1      1636 1.38144E-02 8.12247E-03 1.79391E-03-7.01874E-03 3.45748E-02 2.87497E-02
 -1      1637 2.82318E-03 2.03419E-01 9.56671E-03 6.98122E-03 5.30497E-03-3.32348E-03
 -1      1638 8.06177E-02-7.03589E-02 3.04356E-02-8.01745E-03-2.71103E-02-4.11469E-02
 -1      1639-3.91267E-02 6.94179E-02 6.92128E-03-1.07072E-02-4.42295E-02-4.13242E-02
 -1      1640 1.55848E-01 1.67688E-01 5.15777E-02-6.61228E-02-5.59683E-02-4.38457E-02
 -1      1641 3.87822E-02-6.44596E-02-1.81465E-03-1.31695E-01-6.32884E-03 5.43468E-02
 -1      1642 8.22509E-03 7.40064E-03-2.15356E-02-9.85411E-02-3.32390E-02 1.44456E-02
 -1      1643-1.05521E-01 1.13588E+00 2.46303E-01 5.05470E-01-4.17236E-01-3.36727E-01
 -1      1644-9.76978E-01-4.56899E-01-2.28484E-01 5.00626E-01 6.93122E-01-3.95248E-01
 -1      1645-3.01682E+00-1.56601E+00-9.85027E-01 4.89032E-01 8.02134E-01-8.86919E-01
 -1      1646 5.03720E-02-5.73905E-01-5.51046E-02-5.09865E-02 1.57564E-02-1.54505E-02
 -1      1647-1.94503E-02 4.93993E-02-4.84223E-03-1.62676E-01 3.17593E-02 2.76440E-03
 -1      1648-1.43484E-02-3.85446E-01-2.42495E-02-1.24486E-01 7.50093E-02 1.03603E-02
 -1      1649 4.44681E-02-2.75232E-01-5.61272E-03-7.69924E-03 2.82162E-03-3.99521E-03
 -1      1650-3.82856E-01-1.18066E-02-1.56181E-02-7.25080E-02-2.08030E-02-3.11879E-02
 -1      1651 3.23605E-01-5.82761E-03 3.31739E-03-6.43886E-02-1.94210E-02-1.35680E-02
 -1      1652-4.84153E-01 1.76670E-02-8.45844E-03-4.93604E-02-9.76464E-03-4.11238E-02
 -1      1653-3.83617E-01-3.39852E-02-1.19808E-02-3.59527E-03-1.20622E-02 5.56652E-03
 -1      1654-4.73136E-01-2.27630E-02-1.48765E-02-2.08975E-03 1.08158E-03 5.58959E-03
 -1      1655-4.39393E-01 2.63055E-02 1.39059E-02 3.70536E-02-6.98855E-03 2.46861E-02
 -1      1656 7.21137E-03 2.22771E-03 1.86105E-04 6.49036E-04-7.86066E-05 1.84576E-03
 -1      1657 7.59466E-03 1.88587E-03-1.07380E-03 3.54567E-04-2.44320E-04 1.50487E-03
 -1      1658-1.68888E-04-4.12457E-04-1.19128E-03 1.58616E-04-4.60217E-05-1.84789E-04
 -1      1659-8.69543E-03 2.46544E-01-1.93252E-03-1.14225E-02-7.15405E-03-6.16108E-04
 -1      1660-6.69645E-03 2.33758E-01-3.32622E-03 1.19604E-03-1.66694E-03-5.25636E-03
 -1      1661 1.95780E-03 2.20201E-01-2.53804E-03-9.15410E-03-1.18144E-02-3.13652E-03
 -1      1662 4.45108E-01 5.77957E-02 4.29072E-02-5.27528E-02-4.11570E-03 9.30052E-02
 -1      1663 5.80309E-01-1.85708E-02 9.31469E-03 1.12560E-03 1.92661E-03 1.10749E-02
 -1      1664 3.33170E-01 1.22791E-02-3.87232E-02-1.20579E-01 1.93362E-04-1.52785E-02
 -1      1665 6.32450E-01 8.65260E-02 1.51366E-02 1.41135E-03 1.97737E-02-6.91118E-02
 -1      1666 2.66110E+00 2.51095E+00 2.49557E+00 1.15044E+00 2.66594E-01-4.64516E-01
 -1      1667 9.04819E-01-6.02578E-01 3.65887E-01 1.41364E+00 1.22425E+00-5.86202E-01
 -1      1668-4.02497E+00-1.30277E+01-4.73825E+00-7.70816E-01-1.26910E+00-1.71210E+00
 -1      1669-2.16766E-01-1.17503E+00-2.13718E+00 9.69090E-01-1.88246E-01-7.34010E-01
 -1      1670-2.79244E-03 5.24941E-02 5.60897E-04 8.62928E-03 2.92379E-03-6.53676E-06
 -1      1671 1.87391E-03 2.73014E-01 4.29452E-03 1.30660E-02 1.07539E-02 8.93665E-03
 -1      1672 6.00256E-03-2.19198E-01-7.87541E-03 9.22560E-03-1.69811E-02 7.35170E-03
 -1      1673 5.47781E-03 1.78646E-02 2.28404E-03 2.50789E-02-3.73544E-03 1.94556E-03
 -1      1674 1.99724E-03-2.31034E-01-4.69899E-03-1.68281E-03-1.28136E-03 5.93152E-03
 -1      1675 1.19273E-02 5.51699E-02 2.65655E-03-4.58036E-03-2.07964E-03 1.31095E-03
 -1      1676-7.17578E-01 8.52053E-02 4.06558E-02 2.64204E-02 6.11629E-03 2.01964E-02
 -1      1677-7.89555E-01-2.81345E-01-7.75112E-02-7.65668E-02-6.55935E-02-2.60648E-02
 -1      1678-7.25295E-01 5.69230E-02 2.92334E-02 4.88616E-02 4.09523E-03 1.93226E-02
 -1      1679-4.66998E-01 1.47795E-02-6.04672E-02 2.37002E-02-1.98671E-02-6.42763E-03
 -1      1680-4.74079E-01 1.10421E-01-9.77697E-03 1.54858E-01 2.83635E-02 1.28839E-01
 -1      1681 2.15768E-01 6.89739E-01 4.46005E-02-9.18677E-02 2.93913E-03 7.86272E-02
 -1      1682-1.64170E-01 2.97455E-01-4.64529E-02-9.37815E-02-4.46203E-02 5.93861E-02
 -1      1683-3.43729E-02 1.89216E-01 6.57106E-01-5.51042E-01-1.69449E+00 1.25238E-01
 -1      1684 7.81441E-01-3.49920E+00-2.33106E-01-2.29006E+00-7.62604E-01-8.60398E-01
 -1      1685 9.02006E+00-4.90861E+00 3.87884E+00-2.43300E+00-1.26025E+00 5.32800E-01
 -1      1686-1.34272E-02 3.44067E-01 7.38755E-03-1.10393E-01 4.41540E-02-7.27037E-03
 -1      1687 9.67081E-03 1.11963E-01-6.88609E-03-9.41031E-02 3.80214E-02-1.59101E-03
 -1      1688-8.73000E-02 3.42474E-01-2.57614E-02 1.02317E-02-1.50038E-02-8.51004E-03
 -1      1689 4.73585E-02 1.61981E-01 2.77250E-03-1.57975E-02-1.20823E-02-5.06833E-03
 -1      1690-1.23648E-03-5.26868E-01-4.07344E-02 1.49075E-03 3.21610E-02-2.55322E-03
 -1      1691 3.31559E-02-4.89108E-01-3.11028E-02-4.76306E-02-4.24362E-02-1.31219E-02
 -1      1692 7.64688E-02-6.29086E-01-3.94228E-02 5.54547E-02 4.19349E-02-9.83671E-03
 -1      1693 4.48254E-01-5.12562E-01-9.66740E-02-6.97919E-02-6.79247E-02-8.32884E-03
 -1      1694 8.58235E-01-1.14207E+00-3.86924E-02-9.45455E-01-5.30420E-03-1.60383E-01
 -1      1695 9.86215E-01-1.91122E-01 3.88229E-01-4.72306E-01 3.08091E-01-2.79755E-01
 -1      1696 3.16392E-01-5.37008E-02-1.06500E-05-7.94624E-03 5.62439E-03-1.64915E-02
 -1      1697 9.77093E-01-5.09573E-02-1.55310E-02 1.00025E-01 4.97779E-03-2.21289E-02
 -1      1698 1.03530E+00-7.71572E-03 2.34108E-02-1.72880E-02-3.11307E-03 8.40013E-03
 -1      1699 3.56396E-01 2.66172E-02 8.00832E-03 7.80801E-02 5.82709E-03-1.03183E-02
 -1      1700 1.90879E-01 5.11914E-02 1.78647E-02 3.10299E-02 8.52698E-03-5.23001E-03
 -1      1701 1.82801E-01 5.96779E-02 2.86847E-04 2.67794E-02 1.18130E-02-2.09854E-02
 -1      1702 3.06906E-01-1.44241E-02-2.19419E-02 4.48197E-02 5.30494E-03 6.25146E-03
 -1      1703 1.02868E+00-6.46087E-02-2.33916E-03 3.53910E-02-1.16564E-02-1.48759E-02
 -1      1704 3.35894E-01-5.00758E-02 5.97323E-04 4.09895E-02-4.18678E-03 6.40670E-04
 -1      1705 1.06360E+00-7.32214E-02 1.76831E-02 2.87840E-02-2.01897E-02-3.11606E-02
 -1      1706-1.50659E-03 2.83667E-01 4.93210E-03 5.42121E-03 3.48278E-03 3.82603E-03
 -1      1707 4.22212E-03 2.77697E-01 5.27925E-03-2.43609E-03 6.65112E-04 9.30459E-03
 -1      1708 1.02341E-01-8.73497E-02-1.95123E-02-3.09046E-02-2.80471E-02 3.39345E-02
 -1      1709 4.71465E-03 1.62703E-03 2.88221E-04-2.58074E-03 1.11588E-03-6.62237E-04
 -1      1710 5.75321E-05-7.31050E-05-6.27895E-05-1.56147E-04 1.44150E-04-2.56673E-04
 -1      1711 4.89183E-03 1.46158E-03 6.19713E-04-9.69449E-04 4.43037E-04 4.81872E-04
 -1      1712-1.67259E-01 1.53117E+00 2.07216E-01-1.77708E+00 2.91250E-01 9.98167E-03
 -1      1713-1.39941E-01 3.37817E+00 2.26121E-01-6.17454E-01 2.27529E-01-6.25862E-01
 -1      1714-3.54076E-01 1.93916E+00-2.00270E-01-6.61619E-01 7.28638E-02-7.92920E-02
 -1      1715 2.05926E-02-4.35670E-02-7.31159E-03 8.47848E-02 1.11936E-02-2.28484E-03
 -1      1716 1.63306E-02 1.78402E-02 7.13794E-03 8.60629E-02-1.20708E-02 9.86533E-03
 -1      1717-5.38314E-01-2.42318E-02-4.11608E-03-4.08257E-05-1.96580E-03 1.62547E-03
 -1      1718-5.92301E-01 1.50599E-02-1.95728E-02 4.87573E-02 1.82807E-03-3.04027E-02
 -1      1719-6.03390E-01 1.84676E-02 3.40423E-03 3.11481E-03 9.57510E-03 2.42158E-03
 -1      1720-3.57414E-02-1.70992E-01-1.07178E-02 3.19176E-02-3.60398E-02 6.62347E-03
 -1      1721-3.66351E-02 4.15615E-02-5.42994E-03 8.75865E-02-4.15143E-03-3.23297E-03
 -1      1722-1.81719E-01-2.69967E+00 2.58046E-01 2.42511E-01 2.53584E-01-3.00046E-01
 -1      1723 3.45859E-01 1.55502E-01 1.05975E+00-8.14548E-01 1.20454E+00-7.49146E-02
 -1      1724 6.45496E-01-3.22730E+00-3.91489E-01-1.77588E+00 6.46745E-01 7.27314E-01
 -1      1725 9.95368E-02 5.41775E-03-9.61364E-03 6.19428E-02-8.82060E-03 3.61042E-02
 -1      1726 2.03873E-01-9.72110E-03-6.62457E-03 5.00937E-02-6.54140E-03 2.86410E-02
 -1      1727 7.17984E-02-5.45241E-03-1.74764E-03 9.02769E-05-7.47860E-04-2.22608E-03
 -1      1728 1.73030E-01-7.00667E-03 5.73273E-03 2.80389E-03 4.18455E-03-1.94211E-03
 -1      1729 2.75580E-01-8.44753E-02-3.40299E-03 1.00791E-01-1.64844E-02-5.97856E-02
 -1      1730-6.48604E-01-1.50988E-01-6.88609E-02-7.77389E-02 3.61079E-02-2.06862E-02
 -1      1731 1.00194E+00-2.62276E-02-1.12672E-02 9.73539E-02-3.46743E-03 4.08100E-02
 -1      1732 3.44930E-01-3.76728E-02 1.49752E-02 3.59516E-02-1.69383E-03 3.83808E-03
 -1      1733-1.90751E-02-2.30065E-01-1.53226E-02-3.60325E-03 1.80959E-03-2.16178E-03
 -1      1734-4.75785E-01-2.13490E-01-1.08460E-01-1.11057E-01 1.69034E-02-1.32956E-01
 -1      1735 2.73841E-01-5.69754E-03-2.56030E-02 7.04724E-02-1.80216E-02-1.87258E-02
 -1      1736 6.72566E-01 1.93814E-02 2.44545E-02 2.90883E-02 3.88297E-02 3.94534E-02
 -1      1737 6.75671E-01 1.21624E-01 5.82897E-02 2.88562E-03 7.39644E-02 5.13371E-02
 -1      1738 2.76178E-01 3.89431E-03 1.13751E-02 5.53185E-02-6.34698E-03 5.01765E-03
 -1      1739 7.89187E-01-5.38959E-02-2.14755E-02 3.95108E-02 2.42011E-02 1.75407E-02
 -1      1740 1.99806E-01 3.71760E-02 3.29710E-02 4.28081E-02 1.05114E-02-2.23057E-03
 -1      1741 3.92630E-03 2.85537E-01 1.06657E-02-6.46807E-04 4.34042E-03 2.24090E-03
 -1      1742-6.44112E-01 2.60369E-03-8.03156E-02 8.97115E-03 9.28893E-03 1.53231E-02
 -1      1743-6.58531E-01 3.46036E-02-7.36992E-02 1.53435E-01 2.41054E-02-1.12685E-01
 -1      1744 4.00791E-01-1.08622E-02-2.56345E-02 3.66252E-02 7.75974E-03-1.65692E-02
 -1      1745-6.80721E-02-1.91033E-01-3.73677E-02-5.90456E-03 6.63791E-03 2.42926E-02
 -1      1746 6.58411E-02-1.72996E-01 1.78856E-02-1.05262E-02-1.20449E-02-3.43310E-02
 -1      1747 3.95046E-03-1.81807E-01-1.70509E-03-4.63453E-03 1.97700E-03 1.29546E-03
 -1      1748 4.66365E-01-8.30964E-02 1.67522E-01 1.36682E-01-1.46959E-02-1.47694E-01
 -1      1749 2.16999E-01 2.06815E-01 1.75752E-02 1.25422E-01-3.67184E-02 1.32674E-02
 -1      1750 5.00400E-03 6.21602E-04 2.39492E-03-7.26530E-03 3.15378E-03-1.52637E-03
 -1      1751 4.03725E-03-5.67854E-04-1.28790E-03-1.73824E-02 1.60649E-03-4.97351E-03
 -1      1752 2.26622E-04-3.31028E-04 1.03075E-03-1.04701E-03 8.70494E-04-4.79648E-04
 -1      1753 5.47846E-03 1.53794E-03 2.70062E-03-6.58711E-03-2.76139E-03 1.54319E-03
 -1      1754-1.18327E-03-3.09695E-03-3.18606E-03-1.79723E-02-2.08494E-03 7.34943E-03
 -1      1755 5.04513E-03 4.18795E-03 3.57200E-03-1.14729E-03 5.17820E-04 1.46336E-03
 -1      1756 1.82445E-01 2.77456E-02 2.64822E-04 6.75786E-02 4.97420E-03-3.75799E-02
 -1      1757-1.37054E+00 6.85366E+00-2.07775E+00 1.11749E+00-4.59451E-01-5.32260E-01
 -1      1758-1.45739E+00 7.29057E+00-2.18255E+00 5.04283E-01-3.84280E-01 2.90984E-01
 -1      1759 2.01082E+00-2.91488E+00 1.77412E+00-8.54609E-01 2.34419E-01-3.79558E-01
 -1      1760-1.20338E+00 1.12975E+01-2.84452E+00-1.06693E-01-6.04495E-01 7.73885E-03
 -1      1761 3.08695E-01 1.03183E-02 2.84032E-03-1.73430E-03 8.49687E-03-3.44505E-04
 -1      1762 3.64705E-01 1.77642E-02-6.18373E-04 3.69644E-02 1.99149E-03 3.05188E-02
 -1      1763 3.70189E-01 2.03015E-03 4.54996E-03 4.28599E-03 5.03602E-04 1.03649E-03
 -1      1764-2.52265E-01-9.19121E-03-1.09091E-02-3.43821E-03-1.15658E-03-1.96145E-03
 -1      1765-1.70938E-01-4.91012E-02 1.13852E-02 2.34367E-02-4.22917E-03-2.75947E-02
 -1      1766-4.75612E-01 5.13351E-02 1.63718E-02 1.55509E-02-4.30332E-03 7.74308E-03
 -1      1767-3.89136E-01-4.29071E-02-8.87949E-03-1.52556E-02-3.95396E-03 7.38325E-03
 -1      1768-8.36952E-02-3.50162E-02-7.31580E-03-3.62875E-02-1.12020E-02-4.39525E-03
 -1      1769-6.77712E-02-3.84218E-02 1.45121E-03-6.21207E-02 1.08308E-02 1.12526E-02
 -1      1770-1.53554E-02-6.60660E-03 6.29989E-03-3.78782E-02-1.40357E-02 7.82206E-03
 -1      1771 8.38847E-01 1.98878E-04 3.80289E-02 8.18961E-02 3.36100E-02 5.77098E-02
 -1      1772-7.76812E-01-2.13044E+00-5.38097E-01-5.01397E+00-9.49201E-01-8.15479E-01
 -1      1773-6.61772E-01-1.49358E+00-3.02806E-01 4.20514E-01-9.91636E-01-7.72171E-02
 -1      1774-2.91046E-01-3.28273E-02 3.85919E-03 2.25658E-02-4.56424E-03 1.76904E-02
 -1      1775 1.11414E-01-9.68443E-03-7.32077E-04 4.82578E-02-2.94969E-03 1.68237E-02
 -1      1776 1.74295E+00 2.64088E+00 4.89742E-01-2.74558E-01 1.14262E+00 2.46858E-01
 -1      1777 1.05026E+00 1.15139E+00 9.20595E-02-2.76197E-01-2.52709E-01 4.91076E-02
 -1      1778-7.15447E-01 2.02238E-01 8.17066E-02 7.81580E-02 3.26672E-01 1.99345E-02
 -1      1779-9.05184E-01 7.02142E-02-7.17005E-02 3.07421E-01 4.33352E-02 2.33300E-01
 -1      1780-5.27588E-02 4.43214E-02-1.25265E-02 8.55010E-02 1.49911E-02 1.16248E-02
 -1      1781-4.16889E-03-1.87427E-02 3.64768E-03 8.94487E-02 6.61310E-03-6.79441E-03
 -1      1782 8.24165E-01-2.53626E-02 2.24096E-02 4.11620E-02 1.43152E-02-1.64794E-02
 -1      1783 1.44078E-01 3.65312E-03 1.26988E-03 6.65013E-02-1.14536E-02 7.88310E-03
 -1      1784 1.35006E-01-1.45001E-03-6.64187E-02 5.52845E-02-6.47535E-03 3.99117E-02
 -1      1785-1.95976E-01-1.60024E-02 1.02158E-02-5.59089E-02-6.24305E-03-2.13542E-02
 -1      1786-8.69392E-02-8.19555E-02-6.06162E-03-6.88248E-02 2.70026E-02 6.83328E-03
 -1      1787-7.33112E-02-2.00493E-01 8.64332E-03-1.20846E-01 4.48518E-02 8.31382E-02
 -1      1788 6.81043E-01-7.71542E-03 1.49157E-02 4.50854E-02 1.21936E-02-1.73422E-02
 -1      1789 8.18320E-01 9.27488E-02 5.85677E-02-1.73842E-02-1.03057E-02 2.50457E-03
 -1      1790 8.45811E-01 1.28060E-02-6.14513E-02 2.34049E-02 2.09756E-02 4.68719E-03
 -1      1791 8.07872E-01-8.85069E-03 9.32745E-02 5.12790E-02-9.97168E-03 5.03442E-02
 -1      1792-7.83581E-01-1.69900E-01 1.42985E-02-5.74538E-02 1.94536E-02 2.63049E-02
 -1      1793-6.66457E-01 7.86571E-02 5.45773E-02 1.84573E-02 2.46534E-02-2.75115E-03
 -1      1794 5.45068E-01 4.21571E-01 1.20098E-02-3.43202E-01-1.53872E-02 1.01798E-02
 -1      1795 6.39595E-01 5.43235E-01 7.33458E-02 1.48704E-02-9.40308E-02-1.66366E-01
 -1      1796-7.43053E-02 5.31412E-01-7.20254E-02-3.26196E-02-1.17368E-02-2.17149E-02
 -1      1797 8.51512E-01 1.93874E-01 3.35930E-02-7.37969E-02-3.00100E-02-5.81308E-02
 -1      1798 1.20624E+00 2.10700E-02 1.96516E-01 1.18267E-01-1.82851E-01-2.30208E-02
 -1      1799 9.20076E-01-6.57139E-02 6.61920E-02-1.90362E-02 2.62818E-02-3.66986E-02
 -1      1800 8.45272E-01 5.10523E-03 5.85583E-03 8.00875E-02 4.47637E-03-3.47487E-02
 -1      1801 7.31027E-01 1.44877E-01 1.66330E-01 3.10054E-02 1.31400E-02-2.49387E-03
 -1      1802 2.54182E-01 4.20241E-02 2.21333E-02 7.57312E-02-9.42364E-03-3.70340E-03
 -1      1803 6.55205E+00-3.50736E+00 1.75422E+00-3.87855E+00 1.56962E+00 4.76817E-01
 -1      1804 3.00224E+00-9.80288E+00-7.69124E-01 3.68004E+00-3.69542E-01 2.59716E-01
 -1      1805 8.84301E-01 1.52911E-04 5.17477E-02-2.49305E-02-1.41384E-02-1.00941E-02
 -1      1806 1.17994E-02 8.72095E-02 8.93925E-03 5.53962E-02-3.21179E-02-4.14360E-03
 -1      1807 4.05466E-03 2.84113E-01-3.91180E-03 2.12625E-01-8.14892E-03 5.18799E-02
 -1      1808 1.91110E-01-4.00101E-02 1.47860E-02 4.36854E-02 3.98510E-02-5.29225E-03
 -1      1809 7.22352E-02-7.58726E-02-1.83430E-01 9.38874E-02 6.00456E-02-2.81156E-03
 -1      1810-6.48187E-01 8.81174E-03 5.64914E-02 5.74112E-02-7.71548E-04-1.07369E-02
 -1      1811-7.53934E-01 1.52889E-02-4.73691E-02 9.51213E-02 7.20722E-02-1.73285E-02
 -1      1812 9.55315E-01-2.83611E-02-1.14277E-02 1.09977E-02 5.38295E-03 1.52840E-03
 -1      1813 1.19410E-02-7.16774E-03-1.40720E-02 3.15994E-02-2.55642E-02 6.03207E-03
 -1      1814 1.35480E-01-9.87303E-04-7.63378E-03-5.89597E-02-8.04102E-03-3.31010E-02
 -1      1815 1.53013E-01 4.07918E-02-7.49801E-03-2.31535E-02 3.04673E-03-7.39602E-03
 -1      1816-1.61805E-02-1.99413E-02-1.08171E-02 1.43897E-02-2.07914E-02-5.25765E-03
 -1      1817 2.02997E-01-9.08807E-02-2.09114E-02 1.15779E-01 1.96606E-02 2.28197E-02
 -1      1818 5.77053E-01 8.08581E-02 3.09047E-02-8.80849E-02 4.97691E-03 4.89432E-02
 -1      1819 3.47029E-01-2.04687E-01-6.68382E-02-1.86200E-02-7.01632E-02 2.17543E-02
 -1      1820 5.06653E-01 5.77253E-02 2.29481E-02 1.04109E-02-2.45685E-02-2.21136E-03
 -1      1821 1.78013E-01-2.46970E-03 3.31318E-02 6.97105E-02 9.00512E-03-4.70798E-02
 -1      1822 8.21314E-02-5.58457E-04-2.69030E-02 5.39452E-02-1.06653E-02-3.10328E-02
 -1      1823-6.60849E-03-1.65009E-02-5.30933E-04 4.91717E-02 4.00540E-03 3.93767E-05
 -1      1824-1.52526E-02-2.12429E-01-2.05921E-02 3.05349E-02-2.89939E-02 1.13390E-02
 -1      1825 5.81225E-01 1.35746E-01 1.73055E-01 6.98180E-02 1.85870E-02 1.37748E-02
 -1      1826 1.84242E-01 8.16607E-02 5.96226E-02 3.88947E-02-1.83153E-03-1.91498E-02
 -1      1827-2.81135E-01-1.80248E-02-1.23412E-02-1.15619E-02 2.99934E-02 1.23403E-02
 -1      1828-3.51709E-01 8.90282E-01-1.49542E-02-1.25364E+00 4.48780E-02 1.28011E-01
 -1      1829 6.54401E-02 1.39933E+00 3.13771E-01-8.85824E-01-1.49536E-01-1.98671E-02
 -1      1830-9.51203E-01 1.91941E-02-6.16452E-01-4.44350E-01-3.13289E-01-4.21003E-01
 -1      1831-1.30561E-01 6.94589E-01 6.15048E-02-3.38267E-01-7.49331E-02-9.45775E-02
 -1      1832 2.66590E-01 8.63751E-03 9.29769E-03 4.40904E-02 3.81558E-03-9.60173E-03
 -1      1833-2.07936E-01-6.41021E-03-4.44415E-02 4.17955E-02-1.92711E-02 1.76132E-02
 -1      1834 8.08027E-01-1.27164E-02 1.75692E-02 4.51268E-02-1.02501E-02-2.68059E-02
 -1      1835 2.99977E-01-1.96435E-02 3.16530E-03 5.96823E-02 1.03686E-02 1.01147E-02
 -1      1836-2.67618E+00 2.35860E+00 1.97893E+00-8.48886E+00-4.05172E-01 4.68243E-01
 -1      1837 2.44535E-01 1.30022E+00 2.99502E-01-4.00898E+00-3.43243E-01-2.28924E-01
 -1      1838-1.97179E+00 1.23627E+01 2.46564E+00 1.54192E+00 2.25663E-01 3.13993E-01
 -1      1839 1.27246E+00 3.98405E+00 4.36580E-01-7.31836E+00 5.94989E-01-4.15500E-01
 -1      1840 2.78344E-01 2.56524E-02-1.74425E-03 8.54589E-02 1.40297E-02-3.07691E-02
 -1      1841 5.34540E-01 3.21284E-02 2.82653E-02-2.90760E-03 3.93101E-02-1.35310E-01
 -1      1842-9.70498E-03 2.33273E-01 4.23394E-03 3.70833E-02 2.86213E-02 3.17511E-03
 -1      1843-1.34057E+00 9.12673E-01-7.92689E-02-9.40209E-01 5.53393E-01-2.05848E-01
 -1      1844 8.18437E+00-8.26135E+00 1.21826E+00-4.61819E-01-1.11330E+00-9.26356E-01
 -1      1845-4.29412E+00-2.99818E+00-2.00134E+00 7.31443E-01-1.58881E+00 4.04312E-01
 -1      1846 1.18600E-01 2.85908E-03 6.32833E-03-9.83232E-02-4.65684E-04-5.38913E-02
 -1      1847 3.43210E-02-1.40758E-02 3.48196E-03 5.31222E-02 1.40817E-02-5.23316E-04
 -1      1848 7.89075E-01-1.06340E-02 1.27857E-02-6.50264E-02 6.66814E-03-1.08345E-02
 -1      1849 3.49928E-02-1.10939E-02 2.21524E-02 9.54724E-02 2.10411E-02 4.41665E-02
 -1      1850 1.28824E-01-4.44290E-02 7.46438E-03 8.31678E-02 2.10172E-02 4.39970E-02
 -1      1851 9.88160E-01 3.61704E-03 1.66031E-02-9.29870E-03-2.90235E-03-1.40136E-03
 -1      1852 9.69842E-01 1.59289E-02 1.24825E-02-5.74570E-02-1.69374E-02 1.98462E-02
 -1      1853-6.29678E-02 3.90095E-03-7.07279E-03-5.00738E-02-4.77355E-03-1.12124E-02
 -1      1854-1.96134E-01 2.93547E-02 5.24349E-04-4.27811E-02-1.28480E-02-4.64332E-02
 -1      1855-9.57551E-02-5.64402E-02-2.17834E-02-1.48995E-02 7.43295E-04 8.34418E-03
 -1      1856-1.84541E-01 1.46702E-01 5.93894E-02 1.67659E-02-7.54038E-03 9.27540E-03
 -1      1857 4.26908E-04 2.78925E-01-8.21620E-03-2.03923E-03-5.28005E-04-2.29920E-03
 -1      1858-4.57622E-03 5.74455E-02 2.68423E-03 2.92446E-03-4.89107E-03-2.05693E-02
 -1      1859 2.34849E-02-2.59405E-03 8.74492E-04-1.59103E-02 1.15261E-02 2.35548E-02
 -1      1860-4.50702E-02-2.42588E-01-2.66967E-02-1.14093E-02 2.00663E-04 9.48610E-03
 -1      1861-4.94196E-04 6.15777E-03-1.56998E-03 1.38490E-02-2.27150E-03 5.00041E-03
 -1      1862 2.71955E-01-1.19543E-02 1.35524E-02 5.89530E-02 4.09914E-04-3.28000E-03
 -1      1863-4.84710E-01 1.32745E-02 7.75789E-03 3.55824E-02-2.65227E-03 2.14338E-02
 -1      1864-4.70028E-01-6.82377E-03-8.30370E-03-1.10634E-03 8.48588E-03 1.99882E-03
 -1      1865-4.91873E-01-4.23097E-02 4.43458E-02 1.85199E-02-1.73238E-02-9.34682E-03
 -1      1866 6.57197E-01 5.07652E-04 2.89893E-02 2.21118E-03 2.05707E-03 9.54602E-03
 -1      1867 7.34371E-01 3.06578E-02-9.60169E-03 2.63174E-02 1.21961E-02 3.42620E-02
 -1      1868 6.51788E-01 8.28704E-03 5.94412E-02 3.98222E-02-3.70034E-02-3.41450E-02
 -1      1869 7.32046E-01 3.08597E-02 1.74133E-02-2.14216E-03-1.12737E-02 1.50017E-05
 -1      1870 4.88225E+00-4.73573E+00 1.78783E+00 4.45200E+00 8.12852E-01-2.52725E-01
 -1      1871-6.07539E-01-4.68598E-02-2.03239E-02-7.78635E-02 3.69336E-03 2.86830E-02
 -1      1872 6.37475E-02 3.54575E-02-2.61754E-02 2.94626E-01-2.38381E-02-1.62129E-02
 -1      1873-2.10627E-03-1.52114E-03-4.27876E-03-9.53659E-02 2.88129E-03-1.26474E-02
 -1      1874-4.67887E-01-3.11169E-03-2.61695E-03-5.45473E-02 1.12571E-02 4.87917E-02
 -1      1875 2.14608E-01-2.58540E-02 3.24399E-03-5.59241E-02 1.59476E-03 7.76593E-03
 -1      1876-4.84076E+00-3.20959E+00-1.91630E+00-7.34032E+00 2.71820E-02-1.86464E+00
 -1      1877 9.03693E-03 1.94337E-01 4.72664E-03-1.93309E-02-1.46234E-02 2.67477E-03
 -1      1878-1.48870E-03 2.17248E-01 4.47634E-04 3.52923E-03-6.12024E-03 3.31988E-03
 -1      1879-7.58248E-03 1.65469E-01-5.58239E-03 7.00576E-03-7.15209E-03-6.27373E-03
 -1      1880 8.69353E-02 3.19756E-02 1.58463E-02-1.09450E-02-1.76446E-04-9.28675E-03
 -1      1881 1.14365E-02 2.68013E-03-1.53650E-03-4.47570E-04 8.45235E-04-2.57167E-04
 -1      1882 1.71521E-01 4.36073E-02 2.52695E-03-1.40041E-02-2.40640E-03 6.16601E-03
 -1      1883-7.16691E-01-1.41275E-01-3.61052E-02 1.06746E-02-2.22189E-02 5.66637E-03
 -1      1884 1.00957E-03 2.45107E-02 5.41790E-03-7.34972E-02-2.15243E-02-7.74341E-03
 -1      1885-6.25120E-01-1.40871E-02-1.29283E-03-4.96444E-02 1.02457E-02-2.96308E-02
 -1      1886 1.55438E-01-3.63037E-04-9.90120E-04-8.77340E-02 1.06265E-02-2.80997E-02
 -1      1887-6.49462E-01-7.30947E-01 1.68472E-01 6.50678E-01 4.73534E-02-2.31021E-01
 -1      1888-8.53108E-01-5.27099E-01-2.16849E-01 1.60153E-01 3.22097E-01-2.36496E-01
 -1      1889-6.99732E-01 1.67828E-02-3.96017E-02 8.61988E-02 7.09216E-04 5.81762E-02
 -1      1890 6.98858E-01 1.58137E-02-1.05065E-02 3.85709E-02 1.59919E-02 9.96110E-03
 -1      1891 4.85988E-02-1.77942E-02-1.33407E-02 3.56340E-02-1.64518E-02 4.28627E-03
 -1      1892 1.09387E-01 4.40013E-03-7.44129E-03 6.42561E-02 1.37688E-02-1.20774E-02
 -1      1893 3.63201E-01 1.32904E-02 4.57752E-03-1.99293E-02-2.12265E-02 3.35671E-02
 -1      1894 9.68699E-01 1.60844E-01 1.64027E-01 4.98376E-02 5.78243E-02-4.86376E-02
 -1      1895 1.24681E+00-2.41331E-02 4.75167E-01-6.59525E-02 1.41926E-01-1.00007E-01
 -1      1896 1.00284E+00 1.47401E-01 2.73764E-01-1.64199E-02-1.68097E-02 2.68475E-02
 -1      1897 2.74399E-01 6.79069E-01 2.84079E-02-9.54230E-02 2.21642E-04-5.18166E-02
 -1      1898 3.34354E-01-6.82938E-03-1.15581E-02 7.67196E-02-4.96031E-02 2.63157E-03
 -1      1899-6.86849E-01 1.16495E+00 2.02210E-01-5.50783E-02 3.09993E-01 8.67266E-02
 -1      1900-2.00231E-01-1.15055E+00-3.67085E-01 6.03578E-01 1.29233E-01 1.02415E-02
 -1      1901-1.12818E+00-1.36191E+00 4.08448E-01 1.74307E-01-8.30574E-01 2.70793E-01
 -1      1902-5.81961E-01 6.55779E+00-2.97797E+00 7.22103E-01 1.53284E+00 1.32431E+00
 -1      1903-3.97949E-01-5.42663E-02-3.19046E-02-7.38452E-02-2.50207E-02 3.63950E-02
 -1      1904 3.28772E-01-3.55742E-02-1.48700E-03-7.23776E-02 2.40729E-02 9.75733E-03
 -1      1905-4.70766E-01 4.66270E-02 2.88818E-02-3.49913E-02 1.54284E-02 3.89847E-02
 -1      1906-3.56376E-01-2.29711E-02-3.10568E-03 1.93176E-01 5.15495E-03-9.84302E-02
 -1      1907 2.06407E-01 4.58104E-02 1.85655E-02-8.72320E-02-1.68697E-02-1.68499E-02
 -1      1908-1.88255E-02-3.53262E-02-7.14264E-03-1.69985E-02 1.21924E-03-2.82418E-03
 -1      1909 9.07742E-03-1.20128E-02 2.61407E-03 1.89974E-03 8.53592E-04-3.75109E-03
 -1      1910 5.20069E-03-4.20338E-02 4.69288E-03 8.45878E-04-2.57937E-04-4.87021E-04
 -1      1911-6.25776E-03 4.83023E-02-1.07616E-02 2.10054E-02 3.29674E-02-2.99170E-02
 -1      1912-1.28807E-02-2.03908E-01-1.16252E-03 3.61090E-03 3.36666E-03-5.18512E-03
 -1      1913 6.35753E-03-1.85818E-01 2.82825E-03-1.10055E-02 8.87529E-03-2.80774E-03
 -1      1914-7.23248E-01-4.56700E-02 1.18823E-02-1.01835E-02-3.60514E-02 1.12757E-02
 -1      1915-7.59356E-01-1.59382E-02 1.96127E-02 1.51908E-01-1.97007E-02 4.99027E-02
 -1      1916-7.34719E-01 7.21451E-02-2.67829E-02 4.15879E-02 2.60771E-02 2.98491E-02
 -1      1917 9.27222E-01-8.98045E-02 1.56614E-01 4.04282E-02-6.14462E-02 3.38856E-02
 -1      1918 4.25338E-03 2.29429E-01-6.04769E-03 8.77638E-04-6.70735E-03-8.79869E-03
 -1      1919 2.06657E-01 1.69575E-02 8.15659E-03 4.01378E-02-5.32297E-03-6.03349E-03
 -1      1920 1.00594E+00 7.10604E-03-2.75971E-02 3.46825E-02 1.09110E-03-2.40161E-02
 -1      1921-1.51745E-03 7.11501E-02 2.18384E-02 4.57610E-03 5.77544E-03 6.80084E-03
 -1      1922-4.62257E-03 1.64736E-01 7.08502E-03 6.09557E-03 4.18058E-03-1.26916E-03
 -1      1923-5.90480E-01-1.71125E-02-2.44592E-02-1.82845E-02-3.72641E-03 1.81194E-03
 -1      1924-5.81301E-01 1.07666E-02-3.86852E-02 8.73991E-03 1.60677E-02-2.16038E-02
 -1      1925-6.16253E-01-3.54056E-02-2.69469E-02-5.99075E-02-9.83423E-03-2.07779E-02
 -1      1926 6.68896E-03 2.59484E-01 1.17603E-02-5.65707E-03 1.18918E-02-5.54015E-03
 -1      1927-4.13167E-02 8.09196E-03-5.45930E-02 3.32508E-02-2.70707E-03 3.25791E-02
 -1      1928-1.35128E-01-1.44132E-03-2.52351E-02 4.48017E-02-1.80677E-02 2.39616E-02
 -1      1929-1.04851E-01-3.97705E-03 1.09346E-03-5.42406E-03 1.13300E-03-6.50859E-03
 -1      1930 1.13465E+00 5.01212E-02 3.85873E-02 8.41478E-03-1.03356E-02-1.63083E-02
 -1      1931 1.10334E+00 9.19138E-02 5.54468E-02 5.50469E-03 2.08377E-03 4.95090E-03
 -1      1932-3.76899E-03 2.88035E-01 1.10221E-02 7.63607E-03-1.75072E-03-4.15171E-04
 -1      1933-6.04988E-01-5.84745E-03-1.19345E-02-7.28172E-02 1.77361E-03 3.74789E-02
 -1      1934 1.06953E-03 1.34968E-01-7.84391E-03-3.24694E-02 5.84129E-03 3.50875E-03
 -1      1935-6.51979E-03 8.54321E-02 3.21635E-03 3.28713E-03 2.31141E-03 7.97848E-03
 -1      1936 3.50967E-03 1.37876E-01 1.01334E-02-2.99674E-02-2.19161E-02 1.04083E-02
 -1      1937-1.91773E-01-4.11962E-04-2.91074E-02-6.38037E-02 5.15840E-03-3.63683E-02
 -1      1938 1.04237E-01-3.28803E-02-1.05023E-02-4.48795E-02-1.99780E-02 6.45793E-02
 -1      1939 1.21795E+00-1.44800E-01 1.17656E-02-3.77354E-03 1.12896E-02 3.51965E-02
 -1      1940 2.71026E-01-1.32948E-02-7.27134E-04-7.39508E-02 3.74139E-03-1.49795E-02
 -1      1941 9.98481E-01-1.77974E-02 1.43364E-02-5.92790E-04 3.54033E-03-1.78014E-03
 -1      1942 2.67193E-01-7.36187E-03 7.12381E-03 4.24115E-02-4.92871E-03 2.51318E-02
 -1      1943 2.82718E-02 5.66737E-03-5.21469E-03 4.48601E-02-1.33676E-02-6.92012E-03
 -1      1944 8.14018E-02 1.25154E-02-3.17053E-03 5.74918E-02-7.83221E-04-9.02325E-03
 -1      1945 2.36809E-01 7.45617E-02-3.71334E-01 1.88456E-01-7.77863E-02-1.16950E-01
 -1      1946 2.18811E-02-1.80777E-02-2.39646E-03-5.70908E-02-4.07103E-02 6.24512E-03
 -1      1947 3.57395E-02-3.42140E-02 1.66728E-03-1.30851E-01-7.46592E-03 6.31545E-03
 -1      1948-9.51185E-03-2.58482E-01 1.23189E-02-1.23081E-01-6.64154E-02 1.33036E-03
 -1      1949 1.46496E-01 4.39208E-02 2.60385E-02-4.18517E-04-1.20057E-02-3.48546E-02
 -1      1950 1.84988E-01 1.44820E-01 5.49691E-02-1.15331E-02 4.11973E-02 6.96422E-03
 -1      1951 1.65717E-01-8.82696E-04 3.10156E-03 6.83864E-03-3.60223E-03 8.96811E-04
 -1      1952 1.48190E-01-3.77012E-02-1.07466E-02 7.65396E-03 1.24600E-02 3.86914E-02
 -1      1953 1.07083E+00-8.90982E-02-2.62495E-02 2.65411E-02 1.99191E-03 5.31717E-03
 -1      1954 1.57118E-02-1.51604E-02-5.86719E-04-1.41411E-02-4.50980E-03-6.78405E-03
 -1      1955 2.19725E-02-9.26381E-03 3.32050E-03 2.73567E-03 5.31701E-03 6.02326E-03
 -1      1956 1.34555E-02-9.77411E-03 5.33103E-04-7.20257E-03 3.98092E-03 8.94230E-04
 -1      1957 1.14330E+00-1.74286E-02-6.38381E-02-2.80029E-02 7.82970E-04-1.32721E-02
 -1      1958 9.48101E-02 3.00473E-02 3.74741E-03-1.22653E-02 2.47882E-03 8.29792E-03
 -1      1959 2.07674E-01 4.04982E-02-7.64635E-04 1.52466E-03-9.31567E-03 9.04851E-04
 -1      1960 1.10255E-02-2.68244E-03-1.80232E-03 5.66025E-04 1.14840E-05 5.84188E-03
 -1      1961 4.77310E-03-2.07570E-01-1.35192E-03-4.89354E-03 3.46028E-03 3.84553E-03
 -1      1962 2.25383E-02-2.17673E-01 6.83417E-03-1.56559E-03-3.02170E-03 1.92033E-03
 -1      1963-1.51552E-01 2.35119E-01 7.79724E-02-7.23459E-02 7.26109E-02 4.40185E-02
 -1      1964-1.10719E+00 2.75223E-02-4.37810E-01-9.74686E-02-1.10510E-01-8.16265E-02
 -1      1965-1.59125E-01 2.75515E-02 1.35295E-02-3.03747E-02 1.18644E-03-3.74556E-02
 -1      1966 2.69354E-02 2.67618E-01-1.42490E-03 2.13470E-01 4.62057E-02-7.14866E-02
 -1      1967-5.69600E-01 2.34438E-02 1.69534E-02 3.27701E-02-9.03332E-03 2.28627E-02
 -1      1968-7.50268E-03-3.30924E-01 4.08658E-03-2.54937E-03 9.11232E-03 1.50177E-02
 -1      1969-3.70128E-01-1.50257E-04-4.57492E-03-7.35731E-02-2.02950E-02-4.80214E-02
 -1      1970 1.00235E+00-3.22386E-02-9.01115E-03 4.97248E-04 3.66762E-03-1.00186E-02
 -1      1971 6.17240E-01-9.44212E-04 6.25715E-02 4.38219E-02-6.19934E-03 4.52488E-02
 -1      1972 2.09262E-02-1.80585E-01 1.97732E-03-7.91499E-02 5.70021E-02-5.49928E-03
 -1      1973-2.15040E-02-1.38820E-01 3.26994E-03 1.12507E-02-4.37747E-03-8.88907E-03
 -1      1974-7.48440E-04 2.30422E-01 1.92907E-03-4.21200E-03-2.68744E-03 2.49378E-03
 -1      1975-4.26993E-03 2.68397E-01 2.40017E-04-6.04340E-04 4.06418E-03 5.01170E-04
 -1      1976-1.88722E-01 4.91763E-01-5.21074E-02-7.03869E-02-9.20797E-02-8.77886E-02
 -1      1977 8.31876E+00-7.03721E-01 4.91663E+00-5.41399E+00-3.43453E-02 5.90476E-01
 -1      1978 2.53996E+00 9.86163E+00 2.62089E+00-4.39772E+00 1.23241E+00 7.72013E-01
 -1      1979-4.70409E+00-4.87350E+00-1.97338E+00-7.33019E+00 5.02416E-01-9.65869E-01
 -1      1980-7.20185E+00 3.12430E+00-9.90066E-01-6.17173E+00-9.27788E-02 2.31168E+00
 -1      1981 1.24883E-01 2.10457E-01 1.02394E-01-1.79669E-01-2.54913E-01 1.32723E-01
 -1      1982-1.47154E-02 8.48961E-03 5.80385E-03 6.03568E-02-2.38400E-02 7.90098E-03
 -1      1983-6.34218E-01-1.06504E-01-1.02189E-01-1.37459E-01 7.30406E-02 8.63969E-02
 -1      1984-2.86963E+00-1.49007E+00-5.05847E+00 1.89433E+00 5.36845E-01 8.19107E-01
 -1      1985 4.06892E-01-1.13884E-01 1.16611E+00-8.89115E-01-4.08092E-01-2.77977E-01
 -1      1986 1.34983E-03 1.00275E-03 3.84049E-04-1.50119E-02-5.55685E-03-6.18250E-03
 -1      1987-1.00199E-01-2.66746E-02-3.80110E-02-6.32227E-04 1.41117E-03 1.55857E-03
 -1      1988-1.05989E-01-3.22455E-03 2.04467E-03-1.46480E-02 4.43796E-03 1.79295E-02
 -1      1989-6.60644E-01 1.39181E-02-2.17686E-02 9.78830E-03 1.34628E-02-3.35860E-03
 -1      1990-6.24229E-01 2.66107E-03-2.12993E-02 2.08956E-03 3.03921E-03-2.97811E-02
 -1      1991-6.84126E-01-9.90801E-01-2.19987E-01 2.05770E-01 4.68623E-01 4.08829E-01
 -1      1992-8.56755E-02 1.60732E-01 4.12649E-03-1.41609E-01 1.86944E-03 8.76802E-04
 -1      1993 9.65097E-02 4.90764E-02-1.52344E-04-6.27436E-02 1.65952E-02 1.75755E-02
 -1      1994 2.65893E-02 5.85011E-01 3.02021E-02-1.20760E-01 3.09067E-02-7.64520E-03
 -1      1995-6.97864E-03 1.84947E-01 2.51987E-02 7.63369E-02 5.61469E-02 8.80451E-03
 -1      1996-2.12159E-03-1.95835E-01-1.65368E-02-2.19999E-04-2.82536E-03 7.53213E-03
 -1      1997 2.20026E-02-3.34605E-02-6.50244E-02-1.68059E-02-3.76330E-03 1.17750E-02
 -1      1998 1.28691E-01 1.91376E-02-1.10483E-02-6.51838E-02-8.67099E-03 3.41299E-02
 -1      1999-2.57794E-01 1.43053E-02-2.29396E-03 3.78950E-02-1.48379E-02-2.23981E-02
 -1      2000 1.55269E-01-2.83840E-02-7.32368E-03-1.05606E-02-2.34547E-03 3.09129E-03
 -1      2001 1.88232E-01-4.50284E-03-6.68989E-03-1.57750E-02 1.24014E-02 1.73906E-02
 -1      2002 1.22851E-01 3.12487E-03-3.36851E-03-2.00691E-02 3.08446E-03 1.52947E-02
 -1      2003 4.51009E-01 1.75521E-02-7.16179E-03-5.06031E-02-4.73308E-03-2.56763E-02
 -1      2004 3.39624E-01 1.93797E-02 1.08560E-02 6.55958E-03-1.91838E-02-9.84227E-03
 -1      2005 5.16258E-01-4.06036E-02-8.83107E-03 3.03745E-03 1.33499E-02-3.78875E-03
 -1      2006 3.74789E-01-1.98338E-02 2.52668E-03-4.46928E-02 4.09515E-03 2.18437E-02
 -1      2007 1.01841E-02-9.30810E-03-7.15632E-04-5.67293E-03-7.59034E-04-5.93717E-03
 -1      2008 2.99405E-02-1.07462E-02 7.27944E-03 3.15532E-03 9.21754E-04-4.36370E-04
 -1      2009 1.70295E-03-1.68550E-02 7.57176E-03-2.39043E-02-3.06263E-04-2.47273E-03
 -1      2010 2.40843E-01 4.96687E-01-6.53777E-01-5.53905E-01-7.02608E-02 5.08672E-01
 -1      2011-1.19830E-02 5.87646E-02 1.74186E-03-8.68529E-03 2.16845E-03-7.19699E-04
 -1      2012-3.18607E-03-8.30738E-03 5.41677E-03 8.72729E-03 7.02393E-03 1.63097E-03
 -1      2013 1.08588E-02-1.48271E-02 1.64247E-02-1.08478E-03-3.39179E-03 1.10444E-04
 -1      2014-7.28459E-03-7.66555E-03 2.63842E-02 1.49767E-03 1.43640E-02 8.33534E-03
 -1      2015-4.40679E-01-3.55432E-02-1.52385E-02 1.17203E-02-1.46084E-02 1.64163E-02
 -1      2016-4.24856E-01 1.79733E-02-1.20024E-02 3.82471E-02 6.61466E-03-2.44790E-02
 -1      2017 8.66496E-02 6.36408E-01 4.45848E-02-1.21489E-01-2.96892E-02-1.75929E-02
 -1      2018-1.97611E-01-1.73110E-01-3.26800E-03-1.27836E-01-3.09514E-02-1.87180E-02
 -1      2019-1.64298E-01-3.49371E-02-4.07314E-03-7.31005E-02 4.32165E-03-1.21663E-02
 -1      2020 4.85799E-01-4.33663E-01 8.31224E-02 4.85598E-02-8.85848E-02-6.63284E-02
 -1      2021 9.71593E-01 2.34571E-02 1.59579E-03-3.62735E-03 2.98332E-02-7.31304E-03
 -1      2022 9.59708E-01 5.18420E-02 3.95385E-03 4.27442E-02 9.20239E-03-1.69127E-02
 -1      2023 4.52166E-01 2.44523E+00 4.80455E-03-5.22720E-01-1.78363E-01 1.24944E-01
 -1      2024 1.63731E+00 1.15403E+00-1.86998E-01 2.11312E-01-1.10638E+00-1.62710E-01
 -1      2025 6.15276E-01 1.57028E+00-6.15608E-01-1.88885E-01-1.73548E-01-2.14946E-01
 -1      2026 2.90427E-02 1.81676E-02-3.53553E-04-1.06545E-02-2.53946E-03-8.13489E-03
 -1      2027 1.75982E-02 7.05566E-03-1.07458E-02-5.67959E-03 1.09111E-03 1.10115E-02
 -1      2028 2.91997E-02-5.22159E-03-1.52692E-02 4.26554E-02-1.71796E-02 2.46430E-03
 -1      2029 9.53705E-03 2.34325E-03-1.24125E-02-5.43657E-03-1.13690E-03-1.01678E-02
 -1      2030 1.16280E-02 9.67749E-03 2.95297E-03-6.09939E-03 1.36785E-03 9.15072E-03
 -1      2031-6.04091E-04 1.43449E-03-4.00901E-03 9.69260E-04-1.45670E-03-1.21813E-03
 -1      2032 6.99330E-03-1.41121E-03 2.48940E-02 7.37665E-03-4.75154E-03 3.00217E-03
 -1      2033 8.83154E-04-4.72400E-03-1.82555E-02-3.48939E-04-3.51349E-04 1.00282E-02
 -1      2034 1.75926E-01-1.08313E-02-1.32331E-02-4.29169E-02-1.41415E-02-2.63271E-02
 -1      2035 1.81673E-01-1.63761E-02-3.88713E-03 4.60162E-03-1.17640E-02 8.87584E-03
 -1      2036 2.45695E-01-2.93952E-03 3.92096E-03-2.68364E-03 6.55622E-03 2.43277E-03
 -1      2037 1.42561E+00 4.98029E-01 1.16910E-01 1.16994E-01-3.10047E-02-1.53088E-02
 -1      2038 7.64555E-01 1.62919E-01-2.61265E-01 3.54826E-01 2.12448E-01-1.32372E-01
 -1      2039 1.49109E+00 3.02294E-01 2.43416E-01 3.00054E-01-2.57415E-01-9.58868E-02
 -1      2040 1.26167E-01 5.18028E-02 2.80351E-02-6.62467E-04-1.60895E-02-8.47628E-03
 -1      2041 1.45421E-02-1.72336E-01-7.28494E-02-2.83351E-03-4.22019E-02-1.60710E-03
 -1      2042 1.06731E-01 1.63492E-02 8.58394E-03-8.10330E-03 2.73166E-03-9.98646E-03
 -1      2043 7.75639E-02-2.42574E-02-5.09799E-03-4.24366E-03 1.73278E-02-4.32222E-03
 -1      2044 5.66373E-01 4.73972E-04-6.04843E-04-4.20879E-02-5.57438E-03 8.42805E-03
 -1      2045 6.96830E-02 1.44485E-01 6.22598E-02 5.72991E-03-5.33549E-03 3.27752E-04
 -1      2046-3.69511E-01-3.35279E-03-2.73943E-02 3.18437E-02-2.21952E-03 2.39466E-02
 -1      2047 2.36057E-01-9.04398E-03-4.97725E-03-1.12867E-02 1.42174E-03 1.98890E-03
 -1      2048 7.71476E-01-1.00906E+00 1.18313E-01-6.71050E-01-5.52793E-02-2.89533E-02
 -1      2049 1.16045E+00-1.22793E-02 3.92780E-01-1.24264E-01-3.19950E-01 2.16965E-01
 -1      2050 2.87838E-01 2.03232E-04-1.47493E-03-2.26892E-02-2.50462E-04-1.79310E-02
 -1      2051 1.30024E-01 7.05174E-02 1.41929E-02-4.26214E-02 3.60494E-02-1.83343E-02
 -1      2052 4.10990E-04-2.24894E-04-1.02957E-03-2.15252E-04 1.69022E-04 2.33486E-04
 -1      2053 4.71951E-03 1.04573E-04-3.65910E-03 1.46096E-03 6.10808E-04-3.38277E-03
 -1      2054 1.05984E+00 1.48216E-01 1.65231E-02 7.23461E-03-1.43463E-02 1.18038E-02
 -1      2055 3.38532E+00 4.04868E-01 1.57496E+00-9.74083E-01 5.20178E-01-1.83992E-01
 -1      2056 2.07827E+00-1.00844E+00 1.43349E+00-1.61403E+00-4.41635E-01-1.56539E+00
 -1      2057 2.14966E-01 6.40190E-02 3.69124E-02 4.67760E-02-2.49028E-02-8.27303E-03
 -1      2058 1.87117E-01 3.44265E-02 2.95189E-02 8.46575E-02-3.51305E-02-5.65098E-03
 -1      2059 1.31232E-01 2.97493E-03 2.85115E-02 9.24259E-03-1.63947E-02 6.65206E-03
 -1      2060-5.39995E-02-6.06293E-02 6.48088E-04-6.07322E-02-3.86809E-03 1.11019E-02
 -1      2061-5.55667E-02-9.21528E-02 4.28922E-03-6.91768E-02-2.65650E-02-7.66356E-03
 -1      2062-1.14689E-01-3.53655E-02-1.69227E-02-4.87605E-02 2.31443E-02 1.33461E-03
 -1      2063 1.31579E-01 2.87101E-02 4.36581E-03-3.14525E-02 3.02711E-04-1.35380E-04
 -1      2064-6.45041E-01-1.28498E-01-5.25082E-02-3.92766E-02-4.35750E-02 3.28340E-02
 -1      2065-1.28387E-01-1.95466E-01-7.57472E-02-4.22577E-02-5.96559E-02 2.73591E-02
 -1      2066 1.15649E-01 2.48524E-01 9.68232E-02-4.42973E-02 9.00173E-02 1.26127E-02
 -1      2067-1.63819E-02-8.05759E-03-2.56460E-04 4.74085E-03-2.99809E-03-3.63714E-03
 -1      2068 1.63672E-02 1.01696E-02-5.88207E-02 1.56263E-02-1.77598E-02-1.31700E-03
 -1      2069 2.79950E-02 3.53561E-02-5.32127E-02 3.80035E-02-1.20294E-03-1.56508E-02
 -1      2070-2.07302E-03 9.70593E-02 6.82359E-03 5.95402E-02 3.32493E-02 6.70478E-03
 -1      2071 2.75801E-02-2.20319E-01-4.48666E-03 5.74100E-03 1.55451E-03-1.05486E-02
 -1      2072 9.45297E-01 5.93513E-01 9.93162E-02 5.68587E-01-9.89657E-02 2.37542E-01
 -1      2073 1.34989E+00 5.17791E-01 4.59760E-02 9.29767E-02 1.27434E-01 1.36077E-01
 -1      2074 1.64060E+00 2.85375E-01 7.66786E-01 2.31233E-01 7.53253E-01 3.82307E-01
 -1      2075 3.77686E-01 2.08719E-02-4.04178E-02-3.84716E-03-5.15776E-03 1.54720E-02
 -1      2076-5.37539E-01-1.97902E-02-1.25651E-02-3.32807E-03-1.76356E-02 2.88823E-03
 -1      2077-5.03915E-01 8.17518E-03-2.77952E-02 2.92495E-02 8.33823E-03-1.46472E-02
 -1      2078 6.36589E-01-1.26636E-01-4.60004E-02 6.88199E-03 1.36067E-02 1.71587E-02
 -1      2079 6.93245E-01-6.16683E-02-2.03443E-04-4.33004E-02-3.97556E-02 2.41722E-02
 -1      2080-9.31035E-05 2.70950E-01 4.84841E-03 1.26005E-03 7.86258E-03 1.53380E-03
 -1      2081 3.89693E-05 2.82574E-01 2.76245E-03 1.87951E-03 2.24313E-03-9.41057E-04
 -1      2082 6.62207E-02-4.32509E-02 7.48755E-03 8.81068E-02-2.22131E-03-1.95506E-03
 -1      2083 6.98825E-01-1.12215E-02-1.62615E-04-8.13175E-04 1.45775E-03-3.94271E-03
 -1      2084-1.70677E-01-6.75383E-03 2.43089E-03 4.54016E-03 6.17848E-03 1.02410E-03
 -1      2085 1.48754E-02 2.50960E-03 4.79965E-04-1.14660E-03-7.43756E-03 1.16053E-03
 -1      2086-3.72298E-02-4.31672E-03 5.00621E-03-3.88806E-02-1.23166E-02-2.69478E-02
 -1      2087 1.46796E-01-9.87971E-03 6.77857E-03 4.40282E-02 7.69902E-03-1.20158E-02
 -1      2088-7.09035E-01 9.34767E-03-3.65628E-02 4.22739E-02 3.82886E-02-3.25382E-02
 -1      2089-6.36519E-01-5.22268E-02 7.92039E-02 6.28544E-03-1.28037E-02-1.24232E-03
 -1      2090 7.31656E-01 4.48254E-03 1.19235E-02 3.91109E-02-1.95446E-02-3.78383E-02
 -1      2091 1.13831E-01 9.20522E-03-6.32635E-03-8.70365E-02 1.79364E-03 9.74619E-03
 -1      2092 2.94911E-01-1.18802E-02 5.84520E-03-4.31173E-02-1.75329E-02-5.55927E-03
 -1      2093 4.68598E-02 1.37331E-02 5.16141E-03-1.90262E-02-9.35050E-04-3.04536E-02
 -1      2094 1.23576E+00-8.55432E-01-2.41018E-01-2.38008E-02 9.44784E-02-3.26893E-02
 -1      2095 1.40418E+00 5.25588E-01 2.05842E-01 6.21823E-03-7.09273E-03 1.64638E-02
 -1      2096-1.99624E-02-1.20314E-02 7.52502E-03-3.97991E-02 1.24210E-02-3.56572E-03
 -1      2097 7.30347E-03 3.98982E-03 7.97542E-03-7.42412E-05 4.56704E-03 1.74275E-03
 -1      2098 1.38508E+00 1.43929E+01-1.97781E+00-3.63528E-01-3.74185E-01-9.19431E-01
 -1      2099 7.78629E-01-8.53674E+00 2.09851E+00 9.44783E-01 3.55582E-01 5.67378E-01
 -1      2100-4.60124E-01 1.41461E+01-2.90159E+00 6.02210E-01-5.33157E-01 3.87967E-01
 -1      2101-5.17653E-01-8.09369E-03-2.79988E-02-5.89499E-02 1.36708E-02-4.10686E-02
 -1      2102 8.62013E-01 2.68699E-03 3.08671E-04-5.39347E-02-8.91611E-03 1.35013E-02
 -1      2103-6.62632E-01-3.29798E-02-1.86930E-02 1.27316E-03-6.79959E-03 6.71933E-05
 -1      2104 1.63801E-01 2.45441E-02-4.66861E-04-2.07034E-02 7.16770E-03 3.27494E-03
 -1      2105 8.38230E-03-4.38139E-03 7.92588E-03 1.70799E-03 1.79544E-02 3.76323E-03
 -1      2106 6.39082E-01-1.22140E+00-2.76361E-01 3.85686E-01 2.96197E-01-1.33981E-01
 -1      2107 7.19334E-01-7.28444E-01-1.96810E-01-2.31159E+00-1.48352E-01-1.28224E-01
 -1      2108-9.60200E-02 5.53489E-01 6.76202E-01-2.98174E+00 2.00616E-01-5.97538E-01
 -1      2109 8.58433E-01-1.61210E-02-6.19740E-05 5.84729E-03 1.54499E-03 1.49273E-03
 -1      2110 9.52283E-01-1.83623E-02 2.77935E-03-6.42012E-02 3.96651E-03-3.19087E-02
 -1      2111 1.04580E+00 4.96417E+00 2.43790E+00-1.21699E+00 2.29244E+00-1.18156E-02
 -1      2112-3.24288E-01 2.30121E-02-9.02313E-03-6.97808E-02-1.13840E-03 3.03956E-02
 -1      2113 2.06303E-01-1.85453E-02-1.51266E-03-9.64208E-03-4.82306E-04 4.40827E-03
 -1      2114 2.47749E-01-5.20978E-02 1.15814E-03 1.38786E-01-4.37102E-03 1.98657E-02
 -1      2115-6.11964E-03-2.85603E-03-6.53149E-03-4.98637E-04-5.04731E-04 8.57325E-04
 -1      2116 9.21556E-01-1.75183E+00-1.54877E+00-2.77815E-01 6.84992E-02 4.59712E-02
 -1      2117-5.14407E-01 1.61611E-02-2.72097E-02 3.60457E-02 1.63686E-03 3.34894E-02
 -1      2118-2.61583E+00 9.10248E-01-1.00940E+00-3.85711E-01-3.54288E-01-1.97473E+00
 -1      2119 2.83718E+00-4.39397E-01 5.60931E-01 1.43568E-01-5.50061E-01 2.87835E-02
 -1      2120 9.75312E-01 2.49908E-01-3.00809E-01-4.43376E-01-1.02028E-01-7.52961E-02
 -1      2121 4.44386E-01 1.04518E-01 4.70446E-01 6.02479E-02-1.40299E-01-3.53122E-02
 -1      2122-8.93287E-01-6.39655E-02-3.51386E-01 9.55471E-02 1.78552E-01 3.57157E-02
 -1      2123 8.57929E-02 8.36582E-03-1.99269E-02 4.38520E-02-3.29284E-03 3.47585E-02
 -1      2124 2.41642E-03-2.06044E-03 2.61606E-03 3.85618E-03-1.13242E-04-4.12071E-05
 -1      2125-9.30462E-04 1.18376E-03-4.59940E-03 4.75099E-03-1.69610E-04 9.34900E-04
 -1      2126 1.40208E-03-2.50359E-04-2.16416E-03 4.07371E-03-1.65744E-03 6.09474E-03
 -1      2127 8.08148E-01 9.25340E-04 1.71629E-03 6.79124E-03-1.83944E-03 3.68352E-03
 -1      2128 9.00762E-01 7.15692E-02 2.89703E-03 2.83551E-02-1.30254E-02 1.91176E-02
 -1      2129 8.96914E-01 4.88926E-02 1.90646E-02-8.43162E-03-1.63633E-02-1.83180E-03
 -1      2130 4.27327E-01-1.50893E-02 2.37501E-03-7.15629E-02-1.45448E-03-3.28350E-02
 -1      2131 4.60158E-04 5.11248E-02-8.87828E-04-1.06674E-01 1.19016E-04-1.18100E-02
 -1      2132 6.30516E-01-3.67358E-03 1.71599E-02-4.13396E-02 2.25405E-02-2.43261E-02
 -1      2133-3.31795E+00 2.15761E+00-1.30650E+00-5.94945E-02 5.39563E-01-1.64456E+00
 -1      2134 1.73340E-01 2.10137E-02 4.10485E-02 3.03228E-02 1.59963E-02-3.45269E-03
 -1      2135 1.95394E-01-1.14397E-02 9.39229E-03 4.35170E-02-1.93133E-03 1.03863E-02
 -1      2136-7.75875E+00 8.08467E+00-1.49109E+00 3.46796E+00 9.48514E-01-1.16348E-01
 -1      2137 9.18494E-02 1.02971E-02-1.56360E-03-7.61865E-02-3.02117E-04 6.46836E-03
 -1      2138 1.17311E-01 8.68530E-03 8.63038E-03-5.30345E-02-2.72954E-02-5.53011E-02
 -1      2139 3.21565E-01 1.48991E-01 4.87786E-02-6.26583E-02 5.38091E-02 3.00167E-02
 -1      2140 2.30384E-01-6.48408E-03 2.79150E-03 3.14177E-02-5.67114E-03 7.91824E-03
 -1      2141 1.39454E-01-1.23918E-02 5.72647E-04-1.60648E-02-3.10184E-03-1.57225E-02
 -1      2142 1.43887E-01-6.79469E-02-2.74406E-02-1.06261E-02 1.03039E-02-4.92267E-03
 -1      2143 1.26653E-01-3.14083E-03-9.21494E-04 7.60005E-04-8.26541E-03-4.82356E-03
 -1      2144 3.33106E-02-9.46286E-03-2.04882E-02-7.97769E-02-3.20402E-02 4.97984E-02
 -1      2145-1.33163E+00 1.22930E+00 8.16692E-01 3.81125E-01 1.93148E-01 1.55943E+00
 -1      2146-1.03626E+00 2.83625E+00-2.41230E-01 1.93679E+00 5.81176E-01 1.45789E+00
 -1      2147-5.82257E-03-1.48551E-01-3.68356E-03-1.30450E-02 8.56177E-03 2.04157E-03
 -1      2148 5.63430E-03-1.01178E-01 4.81292E-05-2.55590E-02 1.62020E-02 8.54756E-03
 -1      2149 2.18636E-02-1.08576E-01 9.05591E-03 1.30653E-02 4.37918E-03-4.68349E-03
 -1      2150-4.22513E-02-3.73164E-01-2.38150E-02 1.30015E-01 9.83115E-02-8.13275E-03
 -1      2151 1.31168E-02-5.87942E-01-5.02307E-02 1.31762E-02 1.41167E-02-1.96527E-03
 -1      2152 9.07686E-01-1.28642E-01-4.65454E-02 1.20640E-02 2.41577E-02 7.39865E-03
 -1      2153-2.95021E-01-6.12847E-02-9.70955E-03-6.37394E-03-5.51744E-02 7.13836E-03
 -1      2154 4.99465E-01-7.16695E-03 3.51351E-03-1.25655E-03 7.20701E-03-8.15271E-03
 -1      2155 7.84417E-04-2.60074E-04-1.93749E-03-7.55478E-04-2.51232E-04-3.78299E-04
 -1      2156 4.24522E-01-7.10279E-03 4.56260E-03 3.44298E-02-8.36918E-03 3.53553E-02
 -1      2157 6.06306E-03 3.92069E-04-3.66876E-03 2.00516E-03-1.20252E-03 4.81530E-03
 -1      2158 2.90698E-03 1.60837E-03 1.52603E-03 1.28829E-03 2.56157E-03-6.50585E-03
 -1      2159-8.52964E+00-1.69969E+00-4.43058E+00-1.00541E+01 6.51187E-01-1.58980E+00
 -1      2160-2.58382E-01-3.05424E+00-1.28282E+00-8.72650E+00 9.01944E-02-7.59007E-01
 -1      2161-4.15962E-01-2.31490E-01-8.84854E-02-2.41109E-01-1.93222E-02 1.98886E-03
 -1      2162 2.20964E-01 1.66014E-02 2.78525E-02 4.85569E-02 1.17225E-02 1.96670E-03
 -1      2163-1.36229E-01-8.16635E-03-2.78083E-02 4.00852E-02 2.60995E-02-2.46666E-02
 -1      2164-6.65764E-01 4.03414E-03-1.99354E-02 7.78020E-02 6.38690E-03 5.00076E-02
 -1      2165 2.70953E-01-1.28101E-02-8.47061E-03-1.68798E-02 2.62784E-03 1.15713E-02
 -1      2166 7.99179E-02 1.26719E-02-1.78416E-03-1.00537E-01 6.29872E-04 1.22923E-02
 -1      2167 7.01374E-01 1.11402E-02 1.28888E-02-5.24319E-02-2.01412E-02 3.24001E-02
 -1      2168-6.79860E-03-1.57642E-01 3.67759E-02-6.11929E-03 1.47906E-04-2.03968E-02
 -1      2169-2.94832E-01 1.62802E-02-3.25236E-04 3.77988E-02-1.84715E-04 2.28071E-02
 -1      2170-2.30173E-02 6.12322E-03-1.13705E-02-1.03561E-01 2.96856E-02 2.33550E-02
 -1      2171-1.29810E-02-4.73179E-03 1.58901E-03-7.91095E-02 5.30809E-02 6.96940E-03
 -1      2172-9.24219E-04-4.67053E-02-1.33065E-02-1.74963E-02-6.39189E-03-3.22427E-03
 -1      2173 2.00051E-02-9.31216E-04 3.62151E-03-3.80612E-02-5.60833E-03 3.87938E-03
 -1      2174-3.76488E-02 8.11156E-02 4.85094E-04-5.67836E-02 9.69145E-03 3.00308E-04
 -1      2175-1.72910E-02-3.03066E-03-7.69911E-03-5.45878E-02 2.29774E-02 5.26499E-03
 -1      2176-7.36978E-01 3.22962E-01 8.85195E-02-1.30579E-01-3.30726E-02 9.97847E-02
 -1      2177-3.10718E-01-9.73555E-03-6.64323E-03-7.78336E-03-1.05533E-02-6.57531E-03
 -1      2178 4.26565E+00 5.96897E+00 2.18569E+00 3.59673E+00 1.03137E+00-7.44605E-02
 -1      2179-8.36958E-01-2.49846E-03-2.33060E-01 3.82548E-03-3.85375E-02-6.60899E-02
 -1      2180 9.34763E-01 1.22896E+00 9.00829E-02 3.36358E-01 1.61687E-01-5.06691E-02
 -1      2181 2.84399E+00 4.64017E-01 5.06437E+00 2.24646E+00 1.14045E+00-1.16747E+00
 -1      2182-1.81231E+00 9.38957E-01 7.34194E-01 3.40573E-01-1.18584E-01 2.13097E+00
 -1      2183-2.37312E-01 4.18670E-01-8.36349E-01-4.50080E-01 6.59164E-02-6.22666E-01
 -1      2184 5.14701E-01-1.80830E-01 2.65327E-02-2.80008E-03-2.44953E-01-3.21087E-01
 -1      2185 9.03877E-01-4.71077E+01-4.13837E+00-1.87148E-01-1.45383E-02-2.92786E-01
 -1      2186 8.05592E-01 4.67452E+01 4.18927E+00 1.84937E-01-1.93880E-01-5.37320E-01
 -1      2187-5.25324E-02 8.33804E-04 3.06125E-01 2.49995E-01-1.33688E-02-3.40101E-02
 -1      2188-7.79569E-03-2.07625E-01-4.73308E-02-6.84631E-01 3.12443E-02-4.86175E-01
 -1      2189-2.34548E+00-5.74590E-01-1.22140E+00 1.77923E-01 1.15341E-02 5.67056E-01
 -1      2190 1.13828E+00 1.60314E+00 4.33212E-01-4.54457E-02 1.85236E-02-2.11131E-02
 -1      2191 5.60609E+00 4.84672E+00 1.28470E+00 1.39349E+00-7.82592E-01-1.37872E-01
 -1      2192-3.98892E-03 5.16592E-02-3.36725E-03-6.75893E-03-1.97677E-02-3.01915E-02
 -1      2193 3.08091E-01-6.65431E-03-1.64460E-02 5.53355E-02 1.35141E-02 4.27961E-03
 -1      2194-1.83576E+00-3.60135E-01 2.80419E-01 1.63068E+00 2.28383E-01 1.35961E+00
 -1      2195 1.87483E+00 1.25542E+00 3.98360E-01-3.83633E-02-8.63645E-01 2.99444E-02
 -1      2196-1.60162E-02-8.91863E-02 1.41617E-02-3.04735E-03 1.22908E-02 4.74845E-04
 -1      2197 9.52740E-01-2.03082E-02 1.73795E-01 6.15616E-02-7.44694E-03 4.62750E-02
 -1      2198 1.97735E+00-1.46316E+01 4.22977E+00 1.09261E+00 7.37595E-01 1.12264E-01
 -1      2199 7.65823E-02-1.48971E+01 3.10708E+00-8.71529E-01 1.01863E+00 1.08214E-01
 -1      2200 2.19723E+00-1.46698E+01 3.89225E+00 5.33653E-01 1.07044E+00-2.69288E-01
 -1      2201 2.39113E-01-2.10598E-03-2.01715E-02 5.30223E-02-9.56205E-03-3.42972E-02
 -1      2202-3.07797E-01-2.62023E-02-3.13331E-03-5.58706E-03 4.26765E-03 5.12537E-03
 -1      2203-1.85147E-01-1.18339E-02-1.04212E-02-7.89411E-03 3.66677E-03-3.71901E-03
 -1      2204-3.28574E-01 6.57029E-03-4.89274E-03 2.42491E-02 7.98288E-03-1.13688E-02
 -1      2205 2.29544E-01 5.99413E-02 1.25620E-02 1.14949E-02-2.66329E-02-1.48977E-02
 -1      2206 9.37110E-02-2.22459E-01-9.40774E-02-2.00187E-03-6.17103E-02-2.08391E-03
 -1      2207-4.47644E-02-9.81249E-02-1.62282E-02-2.69909E-02 1.18756E-03 8.88216E-03
 -1      2208-1.54186E-01-4.27278E-02-6.42288E-02-1.71086E-02-7.99460E-04-4.19243E-06
 -1      2209 1.61050E-01 1.59566E-01-9.53566E-01-1.03367E+00-4.08201E-01 1.16034E-02
 -1      2210 2.89564E-01 9.20832E-04 1.24712E-03 5.48512E-02 9.42553E-03 6.84139E-03
 -1      2211-5.80160E-01 3.05401E-02-5.00365E-02 4.37683E-02 3.58286E-03-2.20556E-02
 -1      2212 3.41798E-01 3.30737E-02 1.22905E-02 4.61919E-02-3.59679E-02 1.54185E-03
 -1      2213 6.46728E-03 1.77474E-03 6.99871E-04 2.62507E-04 4.70071E-05-1.02560E-04
 -1      2214 2.05502E-02-6.10506E-03 1.70715E-03-1.51027E-02 4.78666E-04-2.02248E-03
 -1      2215 6.76976E-01-6.02304E-03 1.03586E-02 2.42665E-03-1.21785E-02-5.29180E-03
 -1      2216 3.03195E-01-2.04839E-01-8.31443E-02-1.86669E-02 2.40934E-02 7.46059E-03
 -1      2217 2.32959E-01 6.70085E-03 7.62843E-03 3.24304E-02-8.85786E-04-3.06679E-03
 -1      2218 8.70207E-04 6.61370E-04 3.85138E-04-2.17022E-04 4.13715E-05 2.68462E-04
 -1      2219 1.28032E-01 2.67870E+00-3.71417E-01-4.79204E-01-1.95197E-01 3.86291E-02
 -1      2220 1.03770E+00-2.66224E+00 8.99498E-01 6.45885E-02 1.27350E-01 8.13534E-01
 -1      2221-5.95338E-01 9.64096E+00-2.71111E+00 2.88382E-02-5.74415E-01 3.18472E-01
 -1      2222-1.76274E+00-1.50827E+00-8.81907E-01 4.73525E-01 5.50001E-02 1.30009E-01
 -1      2223 9.83571E-01 1.29341E+01-2.53099E+00 7.27806E-01-5.56347E-01-3.79153E-01
 -1      2224 1.29929E+00 6.31804E+00-2.06294E+00 2.22811E-02-2.89165E-01-1.66075E-02
 -1      2225 8.25998E-02 4.60886E-02 1.24685E-02 6.32084E-02-5.78936E-02-2.49284E-02
 -1      2226-6.42577E-01-2.62681E-02 7.93007E-04-1.02161E-02 2.27895E-02 1.06343E-02
 -1      2227 4.35840E-01 2.26985E-02 9.99398E-03-2.14293E-03-7.55319E-03 4.75414E-03
 -1      2228 1.89993E-01 3.17172E-01 4.47139E-01 1.27527E-01-1.63617E-04 1.33641E-01
 -1      2229 7.51034E-01 1.75595E-01-4.85755E-01 4.86183E-01 2.36200E-02 3.38353E-01
 -1      2230 2.12938E-01 1.06547E+00-2.78566E-01 3.77603E-02-8.38895E-02 5.14680E-02
 -1      2231 2.29299E-01 9.61455E-03-6.77271E-03-1.05423E-02 5.90911E-03-1.51643E-03
 -1      2232-2.65381E-03-2.44709E-03-5.67263E-04 2.61758E-03-1.85975E-04 3.02405E-03
 -1      2233-4.87067E-01 3.29869E-03-5.00049E-03 5.11363E-03 5.57202E-05-8.39891E-03
 -1      2234 9.51006E-01 2.04625E-02 3.27303E-03 3.94725E-03-1.21401E-02 1.69320E-03
 -1      2235 5.84439E-03 1.66759E-03-1.40957E-04-5.42685E-04-1.55794E-04-1.03733E-03
 -1      2236 6.24214E-04 1.07373E-04-2.62448E-04-1.51657E-05-3.63292E-05 3.80561E-04
 -1      2237 5.52781E-03 7.02022E-04 2.28731E-03-2.49168E-03-5.67103E-04 8.20618E-04
 -1      2238 6.83107E-03 3.49331E-05-1.06251E-03-5.73356E-04-4.22930E-04 3.51554E-04
 -1      2239 3.76653E-03-1.83431E-03-7.82140E-05-7.14052E-04-1.56700E-04 4.30785E-04
 -1      2240-4.48734E-01 6.01330E-01-2.96714E-01-1.25908E-01-7.71058E-03-2.54753E-01
 -1      2241-1.56965E-01-7.95088E-02-5.18751E-02-3.17641E-02-7.23188E-03 5.79488E-02
 -1      2242-5.28233E+00-7.58114E+00 1.90610E+00 2.70301E+00 8.35564E-01 7.01435E-01
 -1      2243 3.86463E+00 6.52731E+00-1.41001E+00-1.39123E+00 2.36227E-01 9.90730E-01
 -1      2244 1.75726E-01-1.09317E-02 7.21952E-02 7.80558E-02-1.56994E-02-5.29991E-03
 -1      2245 4.00579E+00-1.40554E+01 3.51145E+00-5.79917E-01 4.26088E-01-8.18567E-01
 -1      2246 2.59770E+00-1.36604E+00 5.81507E-01-1.91595E-01-9.42721E-03-9.26489E-01
 -1      2247-5.00999E-01-2.93030E-01-1.21478E-01-4.11873E-02-4.33337E-02 1.53623E-01
 -1      2248 1.95799E+00-1.30059E+01 3.56558E+00-1.68032E-01 6.72867E-01 1.28747E+00
 -1      2249 2.83154E+00-7.70631E-01 1.02969E+00 1.16569E-01 9.42357E-02-1.13649E-01
 -1      2250-5.26232E-02-2.32221E-02-2.02650E-02 4.45426E-02-1.37443E-04 1.38662E-03
 -1      2251 5.45726E-01 1.24504E-01 2.00178E-01 3.79658E-02 5.35404E-03 8.99566E-03
 -1      2252-5.24205E-03 2.65570E-02-1.93369E-03-1.07177E-02 3.42991E-03 1.17568E-03
 -1      2253 1.00436E+00-6.39025E-03 1.44409E-02-2.63844E-03-2.39125E-03 4.39180E-03
 -1      2254 1.53609E-01-7.44047E-03-1.88029E-03-2.45090E-02-1.42687E-03 7.23058E-03
 -1      2255 3.61963E-02 5.96962E-01 5.01916E-02-3.62662E-02-1.10554E-02-2.14679E-02
 -1      2256 1.40695E-02-2.38381E-02 6.58305E-03 1.78739E-03-2.02314E-03 1.69826E-02
 -1      2257 6.20087E+00 4.20295E+00 2.21710E+00-6.02888E+00-4.72539E-01 1.54554E+00
 -1      2258 5.47165E-01 1.08231E+00 1.15179E-01-2.43480E+00 1.56478E-01 1.37220E-01
 -1      2259-4.37394E-02-2.97501E+00-6.33299E-01-2.84877E+00 4.59377E-01 7.12168E-01
 -1      2260-4.68332E+00 2.87029E+00 7.21302E-01-5.06028E+00-5.50816E-01 2.78371E-01
 -1      2261 3.14080E-01 1.80658E+00-1.16207E+00-6.77927E-02-1.18144E+00-7.74773E-01
 -1      2262 1.68290E-01-1.16310E-02-3.03307E-03-2.89710E-03-4.63094E-02-5.66486E-03
 -1      2263 6.20587E-01 5.63481E-02 2.79796E-02-1.11764E-02-5.67244E-03 1.37904E-03
 -1      2264-7.63903E+00-1.68597E+00-2.31334E+00-1.06131E+00 9.24484E-01-1.69306E+00
 -1      2265 6.31543E-01-3.06713E-01 2.79901E-01-1.71321E+00-9.43518E-02 1.92234E-01
 -1      2266 1.08012E+00-7.51826E-02-1.18983E-02 3.00893E-02-5.69099E-03-2.09194E-02
 -1      2267 1.11583E+00-1.95284E-02-2.01988E-02 1.26556E-02 2.47356E-02-2.55300E-02
 -1      2268 1.12410E+00-4.38101E-02 1.94414E-02 3.57401E-02-5.76036E-02-5.60353E-02
 -1      2269 8.88951E-01 1.25698E-02-1.16657E-02 3.42537E-02-5.71784E-03-3.53086E-02
 -1      2270 1.15508E+00 2.66373E-02-1.13635E-02-1.20664E-02-2.02466E-02-2.05414E-02
 -1      2271 4.11022E-02 4.38576E-03-2.33882E-02-2.28184E-03 5.27143E-03-3.86293E-03
 -1      2272-4.18625E-02-2.30853E-02-3.00801E-03 4.47833E-02 1.01756E-02-4.51903E-02
 -1      2273-4.12131E-01-3.41020E-04-5.95057E-03 2.96291E-02 3.41609E-03-1.34466E-02
 -1      2274-2.23994E-01 2.47112E-04 8.67163E-04 4.38231E-02 4.30890E-03-2.57969E-02
 -1      2275 8.03234E-03 2.34283E-03 4.18479E-03 5.66244E-05 6.40829E-04-9.89884E-04
 -1      2276-1.35193E-03-9.51346E-04 3.67283E-03 1.77563E-03 1.53315E-05-9.03719E-04
 -1      2277 3.16801E-01-1.82951E-01-1.42418E-01 1.27305E-01 7.89862E-02 7.27088E-02
 -1      2278 5.70158E-01-5.10500E-01-7.14992E-02-1.62106E+00-6.55836E-02-1.45139E-01
 -1      2279 7.46962E-01 1.14378E-01 1.91328E-01-5.20735E-01-3.47012E-02 4.13628E-01
 -1      2280-2.66033E-01 1.16141E-01-1.06169E-02-5.77673E-01-2.88933E-02 4.63659E-01
 -1      2281 8.17729E-03 1.41467E-03-9.27884E-04 8.89471E-04 4.23770E-04-1.20661E-03
 -1      2282 4.09808E-03 8.93094E-04-9.60983E-04 2.94594E-04 1.12147E-04-2.12052E-03
 -1      2283 6.22676E-03 1.47075E-03-7.58332E-04-2.52724E-03-2.81439E-04 6.98308E-04
 -1      2284 6.06890E-03-9.26315E-04 3.04608E-04-4.25584E-03 5.48119E-04-1.01704E-03
 -1      2285-2.21594E-03-1.08573E-02-3.95442E-03-2.70879E-03 1.21795E-03 1.42299E-03
 -1      2286 5.95909E-03-9.91114E-03-5.15300E-03-4.60585E-04-1.88308E-03 7.83490E-04
 -1      2287-1.45945E-04-9.48567E-03-5.28695E-03-2.08415E-03 1.12447E-03 4.84924E-04
 -1      2288-3.49883E-03-3.35352E-03 3.85307E-03-4.75371E-04 1.43872E-03 2.29959E-03
 -1      2289 8.66546E-03 1.94913E-03-9.58255E-04 2.89484E-04 3.76290E-04 7.13575E-04
 -1      2290 3.12313E-01-1.40172E-01-1.85941E-02 7.95550E-02 2.60973E-02 3.17380E-03
 -1      2291 2.77563E-03 1.56028E-04 2.61328E-03-3.93989E-04 2.20963E-04 6.41786E-04
 -1      2292 2.78456E-03 7.73498E-04 6.42361E-04-4.72733E-04 2.23788E-04 2.54567E-03
 -1      2293 2.14615E-01 1.57330E-03 5.40256E-02 5.61065E-02-3.81084E-02-2.60067E-02
 -1      2294-5.58280E-03-1.11116E-02-6.63427E-04 3.23835E-03 1.11983E-04-8.61400E-04
 -1      2295 6.11054E-01 2.55544E-03 3.35671E-03-7.63130E-02 1.11765E-02-4.49637E-02
 -1      2296 3.17678E-01 4.01227E-03 6.80614E-03-2.49777E-02 1.72274E-03-2.44618E-02
 -1      2297 2.38192E-01 2.34647E+01 3.14481E-02-9.06921E-01-1.23164E-01 8.16826E-01
 -1      2298 1.64135E+00 2.53556E+01 2.29955E+00 1.41815E+00-1.05661E+00 2.21949E-01
 -1      2299-1.08371E+00-2.41216E+01-6.43462E-01-3.88413E-01 2.72181E-01 6.39519E-01
 -1      2300-1.55333E-01-1.70090E-01 1.24451E-01 2.98027E+00-9.39228E-02-3.06296E-01
 -1      2301-1.32601E-01-5.07525E-03 1.29800E-02-5.04589E-02 1.60240E-03 4.63029E-02
 -1      2302 3.87656E-01 2.53663E+01 8.74248E-01-1.47926E+00-7.65551E-01 3.59338E-01
 -1      2303 8.03780E-01-1.19430E-02 1.57735E-02-7.91536E-02 1.56893E-03-4.86587E-02
 -1      2304 2.59144E-01-6.01591E-02-1.10455E-02-8.14798E-02 5.25094E-02 1.26694E-02
 -1      2305 9.15834E-02-3.71381E-03-1.45769E-02-1.63478E-02-7.43657E-06-5.97614E-03
 -1      2306 2.25763E-01-4.28477E+01-3.43343E+00 9.07413E-01-4.80576E-01 9.84604E-01
 -1      2307-3.31951E-01-4.08943E+01-2.96866E+00 1.43283E+00-4.24215E-01-7.09383E-01
 -1      2308 2.62746E+00-4.75870E+01-4.03082E+00-1.29718E+00-6.97238E-01-6.37052E-02
 -1      2309-4.61376E-01 6.98344E-01 1.96480E-02-1.27112E+00 7.78419E-02 2.55105E-02
 -1      2310 4.11865E-01 3.19788E-02 7.83764E-02 7.60946E-02 9.05297E-02-4.89015E-02
 -1      2311-5.41889E-01-2.05351E-01-1.69475E-01 5.92354E-02-1.52360E-01-6.59747E-02
 -1      2312-4.41832E-01-1.43028E-01-1.48554E-01-1.80196E+00-3.23060E-02 1.24619E+00
 -1      2313-8.72437E-01 2.28186E+01-2.09318E+00-1.16955E+00 4.19458E-01 3.45589E-01
 -1      2314 9.15657E-01 2.10957E+01 1.41537E+00-2.08853E-01 2.22511E-01 1.86304E-01
 -1      2315 4.37334E-01 2.28115E-01 1.62144E-01 4.03089E-01-5.10441E-02 9.26842E-02
 -1      2316 7.03490E-01 2.09713E+01 1.34593E+00-7.05886E-01 1.44673E-01-2.83750E-01
 -1      2317-3.11064E-02 5.71571E+01 2.80264E+00 5.79473E-01 8.34535E-01 4.44000E-01
 -1      2318-8.73001E-01 3.62486E+01 1.42808E+00 9.79011E-02 5.06655E-01 8.62715E-02
 -1      2319-1.34309E+00-9.58124E+00 6.93884E-01-9.75857E-01 2.30017E-01-9.37182E-01
 -1      2320 6.15652E-02 1.31556E+01 8.10500E-01-7.52281E-01 2.44999E-01-1.23563E-01
 -1      2321-7.57700E-01 3.31365E+01 1.32533E+00-9.79149E-02 3.71363E-01-1.03478E-02
 -1      2322-3.75003E-01 4.91302E+01 2.31606E+00 2.32295E-01 7.46423E-01 2.23477E-01
 -1      2323-9.60745E-01-1.52064E-01-2.06921E-01-2.15203E-01 7.86313E-03 1.69005E-01
 -1      2324 5.80208E-03 4.29250E-04 1.55735E-04-4.93864E-04-7.92038E-04-1.31836E-04
 -1      2325-4.11314E-03-4.80724E-03-2.05865E-03 9.71695E-04 1.07055E-03-6.87961E-04
 -1      2326 9.46548E-03 2.26106E-03 2.67541E-03-5.36020E-04 2.80653E-04-6.88585E-04
 -1      2327 7.60852E-03 1.35608E-03-8.03576E-04-1.48199E-04 3.18647E-04-7.16412E-04
 -1      2328-5.92378E-01-2.31863E-03-1.28561E-02-1.36102E-02-5.42192E-03-3.62470E-03
 -1      2329-2.24540E-01-5.55009E+01-7.56126E+00-6.80331E-01 2.15179E+00 1.10998E+00
 -1      2330-8.78773E-02-1.84675E-01-5.33000E-02 1.65360E+00 5.25364E-02-6.76582E-01
 -1      2331 2.02210E-02 4.84899E+01 5.23633E+00-5.80283E-01 7.35470E-01 1.50032E-01
 -1      2332 3.73618E-01-4.79171E-01 8.61618E-01-2.98872E-01 7.89297E-02 1.45921E-01
 -1      2333-5.68640E-01 5.17975E-01 3.08544E-01-4.15891E-01 2.56278E-01-2.02514E-01
 -1      2334 8.32581E-01-2.45466E-01-6.51192E-02-1.53540E-01 1.82050E-01 1.65832E-01
 -1      2335-8.41126E-01 4.15819E+01 3.17223E+00 5.17254E-01 5.17288E-01-1.01327E+00
 -1      2336-3.11468E+00 4.61526E+01 3.84929E+00-1.47549E+00 5.17507E-01-3.21597E-01
 -1      2337 1.06261E-01 2.47428E-03 1.97571E-03 2.00158E-03 1.38311E-03 7.88975E-03
 -1      2338 1.44228E-01-2.29859E+01 1.76762E+00-1.19304E+00-3.87983E-01 4.78372E-01
 -1      2339 2.39311E-01-1.16846E-01 2.07667E-01 2.55223E+00-7.07925E-02-1.27260E-01
 -1      2340 2.75226E+00 1.42588E+01-1.66543E+00 4.74358E-01-8.84158E-01 4.99240E-01
 -1      2341-4.51946E-01 2.67809E+00-6.27080E-01-1.80461E-01-4.50052E-02-5.65777E-01
 -1      2342 2.47404E+00 1.13665E+01-1.26679E+00 2.00063E-01-3.42089E-01-8.64878E-01
 -1      2343 1.12173E-01 5.51593E+01 7.49836E+00-5.13620E-01 2.14884E+00-8.65315E-01
 -1      2344-1.02031E+00-2.52456E+01-1.92865E+00 1.75367E-01 1.11933E+00 5.88947E-01
 -1      2345 1.70336E-04-2.44010E-03-1.62544E-04 5.53305E-05-1.12768E-04-4.43912E-04
 -1      2346 4.62556E-03-1.50443E-05 1.48064E-03 6.26316E-04 4.25914E-05 5.51934E-04
 -1      2347-6.83478E-01-5.12211E+01-2.90709E+00-3.07211E-01-7.80119E-01 7.56086E-02
 -1      2348 3.17700E-01-5.02421E+01-2.40778E+00 7.94083E-02-6.60474E-01-4.53959E-01
 -1      2349-2.45133E-01-1.41585E+01-8.93696E-01-3.78299E-01-2.49932E-01 6.27194E-02
 -1      2350 1.27950E+00-3.61810E+01-1.29407E+00-3.13206E-01-4.22865E-01-1.96900E-01
 -1      2351-1.22471E+00-5.04702E+01-3.31078E+00 4.71337E-01-6.71762E-01 2.12427E-01
 -1      2352-1.34345E+00-5.06079E+01-3.10951E+00-9.95218E-02-7.77499E-01-2.88318E-01
 -1      2353-8.32598E-01-2.48931E+01-3.50325E-01-1.35058E+00 5.41902E-01 8.40110E-01
 -1      2354 4.92192E-03 1.17351E-03 1.36163E-03-3.51170E-04 5.39386E-04 7.32934E-04
 -1      2355 9.61793E-04-3.26976E-03-3.92552E-04-6.97664E-05-9.19446E-05 1.99061E-04
 -1      2356 3.18006E+00 1.03970E+01 2.24397E-01 1.15777E+00-1.14096E+00 5.82932E-01
 -1      2357-7.67069E-01-7.20656E+00 9.95680E-01 2.41853E-01 4.51146E-01 2.45597E-02
 -1      2358-1.35084E+00-1.60555E+01 2.10928E+00-3.56567E-01 5.49510E-01-6.79269E-01
 -1      2359 8.43393E-02-1.21721E+00 3.73970E-01 1.11205E-01 1.49661E-01-2.07777E-01
 -1      2360-5.15936E-01 3.98185E+01 2.74010E+00 1.78217E+00 6.20040E-01 6.41431E-01
 -1      2361 2.92483E-01-3.82709E-01 1.05138E-01 2.14708E+00-5.31734E-02-4.80267E-01
 -1      2362-5.42174E-01-8.78679E-01-3.06063E-01 2.37729E+00 3.36671E-02 5.43112E-01
 -1      2363 5.82442E-01 5.76076E+01 3.02655E+00-4.80103E-01 4.27323E-01-3.55784E-01
 -1      2364 7.08418E-01 5.63573E+01 3.15368E+00 3.70206E-01 7.29754E-01 4.09322E-02
 -1      2365-3.98593E-01 5.68825E+01 2.74771E+00-1.88643E-01 8.53738E-01 7.54420E-02
 -1      2366 5.06430E-01 4.93918E+01 2.73213E+00-2.85533E-01 8.12604E-01-1.88342E-01
 -1      2367-1.90763E-03-2.10850E-03-1.31449E-03 7.60250E-05 3.53139E-04 5.12353E-04
 -1      2368 1.01376E+00 4.89077E+01 3.02235E+00 1.39265E+00 7.10354E-01-1.77331E-01
 -1      2369 1.65946E+00 2.24915E+01 1.81983E+00 8.90396E-01 3.37255E-01 1.36605E-01
 -1      2370-1.41542E-01 4.53036E-01 1.60211E-01-5.14215E-01-7.15539E-02-1.42849E-01
 -1      2371-1.82147E+00-2.41182E+01-2.01109E+00 7.63932E-02-3.84309E-01-2.13271E-02
 -1      2372-1.02098E+00-1.52606E+00-5.66158E-01-3.30934E-01-2.64444E-02-5.82100E-02
 -1      2373-9.14061E-02-1.42454E+01-8.65559E-01-3.40408E-01-2.29058E-01-4.41117E-02
 -1      2374 1.91051E-02 6.54057E+00 1.88927E-01-3.02692E-01-1.85621E-02 1.04849E-01
 -3
    1PSTEP                         3           1           1          
  100CL  101 1.000000000        2374                     0    1           1
 -4  TOSTRAIN    6    1
 -5  EXX         1    4    1    1
 -5  EYY         1    4    2    2
 -5  EZZ         1    4    3    3
 -5  EXY         1    4    1    2
 -5  EYZ         1    4    2    3
 -5  EZX         1    4    3    1
 -1         1 1.77613E-06-4.80122E-07-7.58376E-07 5.04270E-08 7.35099E-08 4.06040E-07
 -1         2-1.12564E-06-5.52320E-08 4.12130E-07-5.18265E-07 2.08117E-08-7.89093E-07
 -1         3-2.95887E-07-2.35700E-07 3.12421E-07 4.92544E-07-1.76741E-07 1.13898E-07
 -1         4 2.04723E-06 1.28767E-06-1.47635E-06 6.70193E-07-6.21414E-07-1.00242E-06
 -1         5 2.48485E-06-6.85855E-07-8.08794E-07 1.91192E-07 3.42511E-07-9.85920E-07
 -1         6-1.45040E-06-4.11226E-07 4.56258E-07 1.29829E-07-2.47804E-07 1.06000E-06
 -1         7-1.88945E-07-1.57211E-07 3.03155E-07 3.99118E-07 1.54491E-07-8.36107E-08
 -1         8 1.79830E-06 8.13675E-07-1.27484E-06 8.40294E-08 7.46706E-07 7.32691E-07
 -1         9 2.32926E-06-5.44950E-07-3.22407E-07 4.01706E-07 1.04033E-07 2.93553E-07
 -1        10 2.90981E-06-6.66539E-07-5.57460E-07 1.18650E-07 3.00596E-09 1.02143E-08
 -1        11-1.12473E-07-3.78642E-07 3.00681E-07 9.45430E-07 3.76238E-07 3.67204E-07
 -1        12-4.44850E-07-2.38747E-07 4.74896E-07 1.19111E-06-5.79101E-07-3.69601E-07
 -1        13 7.30450E-07-1.22058E-07-1.37049E-07 4.70038E-07-1.84253E-07-6.54605E-09
 -1        14 7.68904E-07-9.58113E-08-3.38724E-07 1.52847E-07 3.89061E-08 1.29501E-07
 -1        15 1.68464E-07 1.46807E-07-2.54178E-07 2.90955E-07-2.37962E-09-1.18296E-07
 -1        16 8.84732E-08-3.09328E-08 1.90983E-09 1.30094E-07-1.80734E-07 6.84183E-08
 -1        17-2.91264E-06 3.10788E-05-6.50726E-06 3.35661E-05-3.52259E-05-1.65996E-05
 -1        18-7.01812E-11-2.67962E-05 4.93025E-06 2.47957E-05 3.20418E-05-1.42240E-05
 -1        19 3.19649E-06-3.58544E-05 6.56695E-06 3.31848E-05-3.07241E-05 1.61717E-05
 -1        20 8.62972E-11 3.05977E-05-5.03522E-06 2.53832E-05 2.92809E-05 1.39770E-05
 -1        21 2.05806E-06 1.59188E-06-1.37782E-06-1.13107E-07-4.09436E-07-7.58555E-07
 -1        22-2.05499E-06 5.74990E-08 5.91670E-07-4.53033E-07 1.13102E-07-5.01169E-07
 -1        23 2.15611E-06-5.01483E-07-5.72541E-07-3.97352E-07 1.68164E-07 3.81258E-07
 -1        24-9.12985E-05 1.80263E-04-2.47026E-05-6.17359E-05 2.41750E-05-2.62300E-06
 -1        25 8.30597E-05-1.26732E-04 1.72277E-05-2.52299E-05-1.42249E-05 1.57768E-05
 -1        26-3.22317E-07-2.48254E-07 2.62453E-07 2.78574E-07-1.21844E-07 9.29937E-08
 -1        27 7.71741E-05-1.44728E-04 1.05870E-05-6.02072E-05 1.01236E-05 3.50162E-06
 -1        28-5.46821E-05 7.57521E-05 3.11318E-06-1.83724E-05-1.13919E-05-1.41384E-05
 -1        29-2.95416E-07-2.62096E-07 1.99798E-07 3.02313E-07 2.02167E-07-1.01727E-07
 -1        30 2.34856E-06 1.23147E-06-1.25855E-06 1.90542E-07 7.06225E-07 6.05935E-07
 -1        31 2.21226E-06-5.82750E-07-6.27802E-07-2.55017E-07 4.79104E-08-5.23120E-07
 -1        32-1.61590E-06-4.73411E-07 6.83903E-07-4.31460E-07-1.54079E-07 5.23601E-07
 -1        33 2.40561E-06-3.26866E-07-2.68330E-07 5.01284E-07 1.13820E-07 1.67716E-08
 -1        34 3.06609E-06-5.72022E-07-3.60591E-07 2.44039E-08 3.17409E-08-1.20257E-07
 -1        35-5.16319E-07-4.57595E-07 7.77422E-07 1.11925E-06 2.72337E-07 1.80417E-07
 -1        36-4.79173E-07-5.68779E-07 1.05184E-06 9.20973E-07-3.42900E-07-2.17670E-07
 -1        37 8.39873E-07-2.22579E-07-9.75134E-08 5.55119E-07-1.22770E-07 5.80525E-08
 -1        38 8.38379E-07-9.64856E-08-1.79071E-07 2.24134E-07 5.69250E-08-9.37065E-08
 -1        39 1.71794E-07 2.34309E-07-5.01153E-07 1.93730E-07-6.08937E-08-6.93311E-08
 -1        40 9.74612E-08-7.46943E-09-1.60417E-07 1.41658E-07-1.66484E-07 4.34136E-08
 -1        41-1.08502E-06 2.56613E-07 4.12249E-07 2.18223E-07-6.03328E-08-1.99158E-07
 -1        42-1.81206E-06 3.71162E-07 7.14899E-07 2.32802E-07 4.11980E-08-1.83356E-07
 -1        43-2.51844E-06 3.70940E-07 1.12774E-06 2.70257E-07 2.06621E-08-1.85770E-07
 -1        44-3.01674E-06 2.22772E-07 1.47698E-06 1.92238E-07 1.46816E-07-1.62096E-07
 -1        45-3.03643E-06-3.70096E-07 1.94029E-06-6.12242E-07 5.21967E-07 3.16581E-07
 -1        46-1.73483E-06-4.97876E-06 2.82093E-06 2.27897E-06 2.87980E-06-4.24194E-06
 -1        47 1.06447E-05-1.69722E-05 7.07522E-06-2.79906E-05 4.40026E-06 1.44492E-05
 -1        48 6.59398E-06 6.84035E-06-8.08593E-06-2.65976E-07-8.01892E-06-1.24260E-06
 -1        49 6.23449E-06-2.49170E-06-3.13668E-06 2.03328E-06 7.89247E-07-1.32045E-06
 -1        50 5.15335E-06-1.27509E-06-2.00876E-06 2.41748E-07-2.57364E-07-3.51201E-07
 -1        51 4.80437E-06-1.16452E-06-1.88105E-06 2.19526E-07-4.81583E-08-1.40558E-07
 -1        52 4.33571E-06-8.01215E-07-1.78373E-06 1.97863E-07 7.57852E-08-1.40582E-07
 -1        53 3.69678E-06-8.13802E-07-1.31002E-06 3.01110E-07 6.58201E-09-2.16872E-07
 -1        54 2.97435E-06-8.23715E-07-9.58786E-07 3.19769E-07-2.40483E-07-1.68322E-07
 -1        55-8.48086E-07 1.81960E-07 2.99277E-07 2.25386E-07-7.09089E-08 2.12461E-07
 -1        56-1.33181E-06 1.23993E-07 6.62048E-07 2.06480E-07-1.13852E-07 1.81394E-07
 -1        57-2.14481E-06 4.58474E-07 9.44337E-07 1.63512E-07 2.56454E-09 1.53953E-07
 -1        58-2.68701E-06 4.41077E-07 1.23512E-06 2.52355E-07-8.06014E-08 1.71273E-07
 -1        59-3.22081E-06 3.84167E-07 1.65187E-06 2.49584E-07-1.28353E-08 1.54214E-07
 -1        60-5.17933E-06 2.31976E-06 2.49567E-06-1.44143E-08 1.59791E-07 1.68324E-06
 -1        61 3.31663E-06-2.18141E-05 7.70358E-06 2.60268E-06-9.77921E-06 2.21900E-06
 -1        62 1.88240E-05-3.28451E-05 3.88991E-06-2.95604E-05-8.54656E-06-1.36892E-05
 -1        63-7.05533E-07 1.82536E-05-8.17963E-06 4.36618E-06 1.32606E-05-1.34927E-06
 -1        64 5.27072E-06 2.01061E-06-2.83447E-06 3.75150E-06 2.88641E-06 3.56678E-06
 -1        65 5.68949E-06-7.18808E-07-2.53726E-06-1.41945E-07-8.71282E-09 7.63650E-08
 -1        66 4.93270E-06-7.86368E-07-2.04345E-06 1.41481E-07-1.54596E-08 9.31992E-08
 -1        67 4.34127E-06-9.74635E-07-1.69062E-06 8.49504E-08-2.10732E-08 1.03818E-07
 -1        68 3.69258E-06-7.14542E-07-1.46083E-06 1.67723E-07 6.11341E-08 1.67942E-07
 -1        69 3.08707E-06-5.59358E-07-1.07668E-06 2.46880E-07 1.87120E-07 2.09808E-07
 -1        70-1.98435E-07-2.20709E-08-5.27555E-08 7.67546E-08-3.73909E-08-1.79823E-07
 -1        71 5.28238E-09-2.46759E-08 2.33916E-08 4.15454E-08-3.36025E-08 2.32689E-08
 -1        72 4.39681E-08-5.36044E-09-8.99249E-09-4.84824E-10 2.00282E-09-4.18515E-09
 -1        73 3.43639E-09-1.81339E-08 3.79693E-09-9.79667E-09-5.29167E-10 2.25811E-09
 -1        74 4.12031E-08-1.07346E-07 2.79420E-08-1.27040E-09 2.80634E-09-1.70787E-08
 -1        75 2.78297E-07-5.22366E-07 2.55551E-07-7.87026E-08 3.24904E-07 2.36775E-07
 -1        76 5.62978E-08-2.15810E-09-2.64177E-08-2.82741E-08 4.63648E-08 1.38027E-07
 -1        77 1.78687E-08-5.13140E-08 3.75265E-08 2.45244E-08 6.30912E-08 5.74958E-09
 -1        78 1.14383E-08-1.41663E-09-9.27511E-09-4.71067E-09 5.16886E-09 1.34330E-08
 -1        79 1.21612E-08-1.51410E-08-1.58657E-09-1.38923E-09-7.40528E-09 3.10656E-09
 -1        80 1.34840E-07-9.94754E-08-1.02846E-08 2.11996E-08-1.62841E-09 3.88166E-08
 -1        81-1.48813E-07-4.12366E-07 2.30416E-07-5.17169E-07-3.11193E-07-2.48726E-07
 -1        82-2.66662E-06 9.19290E-07 7.77328E-07 7.05641E-08-1.79541E-07-2.11772E-07
 -1        83-1.64974E-06 4.05676E-07 4.95583E-07-4.74922E-07-1.39227E-07-2.84790E-07
 -1        84-2.41551E-07 9.53027E-08 5.48277E-08-2.86479E-07-6.55840E-08-1.69473E-07
 -1        85 5.24388E-07-7.54545E-08-1.68275E-07-3.36505E-08 2.69335E-08-8.12514E-08
 -1        86 9.12698E-07-1.63591E-07-3.86967E-07-2.52496E-07-1.21854E-07-2.37035E-07
 -1        87 2.04155E-06-4.99250E-07-6.94184E-07-4.53776E-07 4.73688E-10-2.83594E-07
 -1        88 3.65737E-06-1.02220E-06-1.13114E-06-3.84942E-07 2.12446E-07-1.45454E-07
 -1        89-2.56368E-06 5.56996E-07 8.36878E-07-4.07851E-07 1.19476E-07 2.54922E-07
 -1        90-1.65511E-06 4.41613E-07 5.54018E-07-2.84418E-07-2.18082E-08 2.76935E-07
 -1        91-3.92234E-07 1.57750E-07 1.52543E-07-2.29176E-07 2.21133E-08 2.90783E-07
 -1        92 3.52625E-07-1.71482E-07-1.24789E-07-9.26493E-08 1.96410E-07 1.00177E-07
 -1        93 8.06806E-07-4.79667E-07-2.48388E-07-3.42755E-08 4.84819E-08 9.71020E-08
 -1        94 1.63823E-06-6.38256E-07-4.86398E-07-2.61838E-07 1.31739E-07 3.78543E-07
 -1        95 2.82034E-06-6.69515E-07-9.02433E-07-4.08773E-07-2.89921E-08 4.05870E-07
 -1        96 3.84109E-06-1.40676E-06-1.21298E-06 3.53384E-08-3.37114E-07 2.58559E-07
 -1        97-1.18919E-06 2.89187E-06-8.78770E-07-2.68799E-07-3.92901E-07 2.78675E-07
 -1        98-9.21278E-09 7.88633E-07-4.20638E-07-3.35347E-07-4.09821E-07 2.88093E-08
 -1        99-2.18609E-07-2.32129E-07 1.01697E-07-1.10056E-07-1.69770E-07-7.73413E-09
 -1       100 2.55796E-07-7.84039E-07 1.75375E-07-7.22709E-08-7.46474E-08-1.18357E-07
 -1       101 2.54076E-07-9.93705E-07 2.71630E-07-2.74669E-08-2.95781E-08-3.16333E-08
 -1       102 2.92455E-07-8.30609E-07 2.43058E-07 7.18425E-08 1.59881E-07-4.42285E-08
 -1       103-6.70270E-07 2.71617E-06-9.03372E-07-6.97869E-07 4.57085E-07-2.53729E-07
 -1       104 1.29461E-08 5.60376E-07-3.43598E-07-6.56520E-07 3.12462E-07-3.31841E-08
 -1       105 1.77519E-07-4.25976E-07 7.29524E-08-1.23167E-07 1.10746E-07 3.64346E-08
 -1       106 2.76705E-07-8.24343E-07 2.47938E-07-4.42131E-08 5.30301E-08-2.30796E-08
 -1       107 3.10246E-07-1.00623E-06 2.80278E-07-1.37437E-08-2.14224E-08 1.22562E-08
 -1       108 2.24316E-07-8.86252E-07 2.60714E-07 2.26958E-07-1.71098E-07 1.18580E-07
 -1       109 4.46751E-06-1.48837E-06-1.18810E-06 5.54109E-07 1.96164E-07-4.86664E-07
 -1       110 4.44830E-06-1.34216E-06-1.26767E-06-2.85887E-07-7.10222E-08 1.39466E-07
 -1       111 3.26716E-06-9.53473E-07-9.22340E-07-1.95133E-07-5.06120E-08 2.33090E-07
 -1       112 1.90212E-06-6.72692E-07-5.20667E-07-2.48342E-07 1.64494E-08 1.69164E-07
 -1       113 9.19312E-07-2.97822E-07-2.99619E-07-1.22181E-07 6.34592E-08 1.27116E-07
 -1       114 1.37661E-07-2.18959E-08-5.27346E-08-2.22502E-07-3.57014E-08 1.49990E-07
 -1       115-1.51998E-06 6.17132E-07 3.19097E-07-4.32491E-07-3.58031E-08 2.72852E-07
 -1       116-2.70507E-06 9.19442E-07 6.75313E-07-4.63583E-07 5.92821E-08 3.05890E-07
 -1       117-2.71224E-06 1.26094E-06 2.85222E-07 9.78526E-07-1.04739E-07-8.27850E-07
 -1       118 4.74186E-06-1.59345E-06-1.29182E-06 6.70887E-07-5.57324E-08 3.99737E-07
 -1       119 4.38501E-06-1.42167E-06-1.25896E-06-4.58834E-07 1.90675E-08-2.29709E-07
 -1       120 2.79463E-06-8.38479E-07-8.39748E-07-5.09957E-07 5.83136E-08-3.04766E-07
 -1       121 1.37905E-06-3.70422E-07-4.28425E-07-1.02909E-07-2.80042E-08-1.53210E-07
 -1       122 8.49921E-07-2.51160E-07-2.44148E-07 4.35579E-08-4.48481E-08-8.58604E-08
 -1       123 4.56111E-09 3.54969E-09-5.47833E-08-1.54443E-07-6.50874E-08-2.71314E-07
 -1       124-1.44030E-06 4.96381E-07 3.10450E-07-3.28124E-07-6.76030E-08-4.16142E-07
 -1       125-2.57080E-06 8.59705E-07 6.78069E-07-3.56525E-07 4.97764E-08-2.69972E-07
 -1       126-2.69626E-06 1.46826E-06 3.49650E-07 1.08106E-06 2.53024E-07 8.69630E-07
 -1       127 8.79032E-07-4.38414E-07-1.38167E-07 5.04549E-07 1.72508E-08-3.33195E-07
 -1       128 1.52384E-06-6.43626E-07-2.43224E-07 2.61412E-07 6.69488E-08-2.05125E-07
 -1       129 2.24339E-06-9.33899E-07-4.05648E-07 1.54454E-07 1.26811E-07-1.47732E-07
 -1       130 3.09165E-06-1.42859E-06-5.05420E-07 2.29659E-07 4.15054E-08-1.47769E-07
 -1       131 3.73037E-06-1.88928E-06-3.23254E-07 1.42027E-07 1.55134E-07-1.35354E-07
 -1       132 4.34657E-06-2.31526E-06-1.50910E-07 3.47649E-07 1.44783E-07-2.49559E-07
 -1       133 4.10217E-06-2.66803E-06 1.68792E-06-6.91922E-07-1.46650E-06 1.39422E-06
 -1       134-1.16936E-06 5.14101E-07 4.80402E-07-2.91960E-06-1.37972E-08 2.38483E-06
 -1       135-3.08082E-06 1.88947E-06 3.95034E-07 2.14992E-07 7.09507E-07 9.85874E-08
 -1       136-2.83529E-06 1.47045E-06 3.71119E-07 2.73647E-07 4.08795E-08-1.32912E-07
 -1       137-2.08084E-06 1.27626E-06-7.46830E-08 1.91331E-07 5.87605E-08-9.83443E-08
 -1       138-1.31997E-06 9.35579E-07-1.58307E-07 1.68928E-07 3.64742E-08-6.89167E-08
 -1       139-4.00193E-07 5.48616E-07-4.03572E-07 2.83542E-07 1.19633E-07-1.59189E-07
 -1       140 4.18697E-07 2.14427E-07-4.14283E-07 2.12517E-07-2.83583E-07-2.13981E-07
 -1       141 9.95670E-07-1.17654E-07-4.19734E-07 2.48919E-08-7.39299E-08-7.77093E-08
 -1       142 1.24259E-07 3.25859E-08-1.45679E-07-4.53381E-08-2.43291E-08 1.52335E-08
 -1       143 2.86425E-08-4.73763E-09-3.05272E-08 2.25457E-08-5.92566E-09 2.53905E-08
 -1       144 3.30312E-08 2.37866E-11-1.96763E-08 1.99674E-09-1.01270E-09 4.63458E-09
 -1       145 7.58534E-09 3.23540E-10-4.75299E-09-3.24535E-09 6.26037E-09-2.00646E-09
 -1       146 1.78470E-08-9.03963E-09 7.73770E-09-2.42222E-08 2.88021E-08-2.10696E-08
 -1       147-1.71344E-07-4.30621E-08 1.00650E-07-2.20080E-07 1.05904E-07 1.67882E-08
 -1       148-6.12665E-07 1.86888E-07 1.50884E-07-4.39864E-08 5.39759E-09 1.32272E-07
 -1       149 1.41208E-06-2.88322E-06 4.25050E-07 2.49525E-07 1.77474E-07 1.17764E-07
 -1       150 3.04996E-07-1.06370E-06 3.08400E-07-7.13495E-07-4.14923E-07 2.70519E-08
 -1       151-1.89901E-07 6.14004E-07-1.71304E-07-1.76453E-07-1.75843E-07 2.78377E-08
 -1       152-2.60438E-07 9.87793E-07-3.31734E-07-5.45478E-08-9.05815E-08-2.05623E-08
 -1       153-3.43714E-07 1.23836E-06-3.78486E-07-5.86275E-09 6.76381E-09 4.54710E-08
 -1       154-3.67589E-07 1.24154E-06-3.42593E-07 7.69060E-08 8.41359E-08 3.24953E-08
 -1       155-3.59809E-07 8.83553E-07-1.57029E-07 5.20287E-07 3.18865E-07 3.47223E-09
 -1       156 9.19714E-07-3.81633E-07-1.85172E-07 1.84326E-07-4.91346E-08 2.08060E-07
 -1       157 1.52252E-06-4.81151E-07-3.25520E-07 2.49761E-07-1.36555E-08 2.12140E-07
 -1       158 2.14210E-06-8.42093E-07-4.57842E-07 2.24714E-07 1.11516E-07 1.61321E-07
 -1       159 3.10028E-06-1.31633E-06-6.17764E-07 2.74109E-07 8.18850E-08 1.51469E-07
 -1       160 3.82801E-06-1.63644E-06-7.25964E-07 1.89174E-07 8.93979E-08 1.70732E-07
 -1       161 3.80637E-06-1.63874E-06-3.67867E-07 1.87409E-07-2.55435E-07-1.42565E-07
 -1       162 3.73220E-06-3.09013E-06 8.70069E-07-3.63458E-06 5.13945E-07-1.13947E-06
 -1       163-3.35040E-06 3.58123E-06-1.09120E-06-2.60343E-06-1.14993E-06-1.37197E-06
 -1       164-3.07145E-06 1.39604E-06 3.79083E-07 8.21071E-07-2.56054E-08 3.51253E-07
 -1       165-2.40916E-06 1.32146E-06 1.12216E-07 1.83779E-07 2.47404E-08 2.09629E-07
 -1       166-1.79084E-06 9.65891E-07 6.15299E-08 1.70011E-07-6.26932E-08 1.70176E-07
 -1       167-1.09241E-06 6.90424E-07-9.42261E-08 1.49427E-07-2.86768E-08 1.71388E-07
 -1       168-3.34766E-07 5.29155E-07-3.18610E-07 1.94224E-07-1.38287E-07 2.08356E-07
 -1       169 3.05660E-07 6.36666E-08-1.60155E-07 6.68662E-07-2.93396E-08 5.11420E-07
 -1       170 7.04960E-07-6.93711E-08-3.40129E-07-5.94433E-08-8.03195E-09 1.75739E-07
 -1       171 8.58417E-08 2.37745E-08-8.03440E-08-4.29574E-08 1.53540E-08-3.77823E-08
 -1       172 2.10960E-08-1.87574E-09-2.35638E-08 9.70009E-09 3.94645E-09-1.55662E-08
 -1       173 2.44357E-08-4.31092E-10-1.29331E-08-2.88198E-09-2.74512E-09-2.01003E-09
 -1       174 2.54580E-08-1.01399E-08 1.33291E-08-4.93090E-08-2.88631E-08 1.11916E-08
 -1       175-8.60779E-08-2.51816E-08 7.79278E-08-2.46869E-07-1.16222E-07 3.46331E-08
 -1       176-9.29187E-07 3.22923E-07 2.80944E-07-1.57464E-07-1.80217E-07-1.84283E-07
 -1       177 1.46496E-06-2.78995E-06 2.64731E-07 4.05407E-07-5.23710E-07-2.61228E-07
 -1       178 5.29449E-07-1.55654E-06 3.14209E-07-6.36341E-07 4.91342E-07 5.42912E-08
 -1       179-1.00038E-07 1.46822E-07-1.11418E-07-4.33266E-07 3.88425E-07 6.38014E-08
 -1       180-2.41566E-07 9.32271E-07-2.79395E-07 3.83785E-08 7.63276E-08 2.26289E-08
 -1       181-2.88216E-07 1.16432E-06-3.34129E-07-5.17629E-08 9.24344E-08 2.50914E-09
 -1       182-4.18301E-07 1.26521E-06-3.43711E-07 6.09665E-08-3.61378E-08 1.07729E-08
 -1       183-3.47631E-07 8.56614E-07-1.72420E-07 2.09490E-07-2.33117E-07 2.99455E-08
 -1       184-3.18940E-06 2.66817E-05-1.24544E-05-9.04680E-06-1.85671E-05-8.91367E-06
 -1       185 1.56820E-06 4.22538E-05-1.23701E-05 2.47211E-06 2.24343E-05 8.53526E-06
 -1       186 1.04823E-07-4.06657E-05 1.27818E-06 6.24236E-06-2.49074E-05 4.40522E-06
 -1       187 3.59196E-06-3.61089E-05 1.27389E-05-1.94030E-07 1.98534E-05 1.92697E-06
 -1       188 2.07420E-04-5.56675E-04 8.73820E-05-2.33812E-06 4.60086E-05-5.72849E-06
 -1       189 1.69548E-04-4.96574E-04 9.98400E-05 3.48287E-06 6.64302E-06 6.40810E-06
 -1       190 1.34311E-04-4.11349E-04 9.30919E-05 4.98725E-06-6.89903E-06 5.66901E-06
 -1       191 9.86797E-05-3.25537E-04 9.00618E-05 9.77053E-06-7.54461E-06-7.57431E-07
 -1       192 4.85794E-05-1.66947E-04 6.40227E-05 1.13888E-05 3.97252E-06-4.10824E-08
 -1       193 4.38151E-05-1.28080E-04 4.88797E-05-7.39938E-07 1.75900E-07-4.66905E-06
 -1       194 2.07234E-05-6.64969E-05 1.78926E-05 3.33611E-06-2.81511E-05-8.86398E-06
 -1       195 1.94382E-04-5.44751E-04 9.31535E-05-4.89665E-06-4.56536E-05-2.65325E-05
 -1       196 1.59804E-04-4.84790E-04 1.06296E-04 6.10679E-06-5.79807E-06-4.62890E-06
 -1       197 1.20438E-04-3.79353E-04 9.28608E-05 8.46350E-06-5.30433E-06-4.48997E-06
 -1       198 8.63045E-05-2.87469E-04 8.16937E-05 1.51096E-06-1.06371E-07 2.39422E-06
 -1       199 6.03695E-05-1.98328E-04 5.76493E-05 9.50846E-06 1.35490E-05 7.07578E-07
 -1       200 2.92318E-05-1.13706E-04 5.16898E-05 6.48240E-07 9.24754E-06 2.13114E-06
 -1       201 1.39970E-05-4.71696E-05 1.59465E-05 6.27475E-06 3.46553E-05 3.76070E-06
 -1       202 7.61609E-05-1.76339E-04 4.75366E-06 1.01879E-06 7.47781E-06-1.95977E-06
 -1       203 1.03272E-04-2.83629E-04 1.88870E-05 2.37956E-05-2.01047E-05 1.37513E-06
 -1       204-2.03284E-04 5.49725E-04-8.93176E-05-7.00387E-06 4.81827E-05 6.26701E-06
 -1       205-1.68392E-04 4.94562E-04-1.03181E-04 1.59506E-06 7.48410E-06-1.14164E-05
 -1       206-1.32576E-04 4.07228E-04-9.48599E-05 1.54167E-06 3.72229E-06-3.94982E-06
 -1       207-9.12562E-05 3.00775E-04-8.17445E-05 4.09076E-06 1.35512E-06-6.10052E-07
 -1       208-5.12601E-05 1.76042E-04-5.78698E-05 2.06123E-05-1.13724E-05-1.68774E-06
 -1       209-2.37673E-05 1.15633E-04-5.22028E-05 7.50327E-06-1.36288E-05 1.15590E-06
 -1       210-8.74419E-06 5.57288E-05-2.96590E-05-1.34524E-06-2.42181E-05 8.21142E-06
 -1       211-1.96589E-04 5.45256E-04-8.92188E-05-6.98739E-06-4.45019E-05 2.79156E-05
 -1       212-1.61450E-04 4.83845E-04-1.04933E-04 7.07152E-07 2.28961E-06 1.19240E-05
 -1       213-1.21272E-04 3.78638E-04-9.21714E-05 1.17188E-05 7.85148E-06 4.77502E-06
 -1       214-1.00723E-04 3.29468E-04-9.03991E-05 4.19547E-06 7.93883E-06 3.77548E-08
 -1       215-4.90097E-05 1.66201E-04-6.43678E-05 6.61833E-06-3.54669E-06 7.15739E-08
 -1       216-2.91452E-05 1.15812E-04-4.70115E-05-4.60917E-07 1.51681E-06-8.09317E-07
 -1       217-2.23630E-05 6.39595E-05-1.28153E-05 5.82871E-06 2.99886E-05-2.27587E-06
 -1       218-9.08778E-05 2.22372E-04-8.99737E-06-1.20516E-05 2.61176E-06-4.52123E-06
 -1       219-1.12582E-04 2.79271E-04-1.67337E-05 9.37411E-06-1.34774E-05-1.11372E-06
 -1       220-1.42495E-06 5.29178E-07 2.58123E-07 1.46546E-07-2.83947E-08 1.07509E-07
 -1       221-1.96171E-06 6.54734E-07 4.07092E-07 1.41132E-07-1.31226E-07 6.73338E-08
 -1       222-2.76249E-06 1.03363E-06 5.49825E-07 1.36269E-07-7.02486E-08 1.26520E-07
 -1       223-3.46880E-06 1.36441E-06 4.78957E-07 1.17672E-07-1.54969E-07 1.22726E-07
 -1       224-4.20147E-06 1.86777E-06 3.77783E-07 1.18232E-07-1.81890E-07-7.70788E-08
 -1       225-5.80256E-06 6.07474E-06 3.41316E-07 7.37752E-07 1.46405E-06 3.60041E-08
 -1       226-8.48544E-06 1.67828E-05-2.41104E-06 3.70065E-08-4.01740E-06-9.65186E-07
 -1       227-8.26526E-06 1.19305E-05 5.04898E-07-1.52844E-06 4.61234E-06-1.21609E-06
 -1       228-2.46637E-06 2.07320E-06 7.50354E-08-1.93844E-06-5.64531E-07 1.08221E-06
 -1       229-3.97855E-06 1.71252E-06 6.03545E-07 3.33906E-08 1.33659E-08 1.44340E-08
 -1       230-3.41120E-06 1.50335E-06 6.36213E-07 1.29680E-07-1.13217E-07-5.89181E-08
 -1       231-2.47150E-06 1.03122E-06 4.60385E-07 9.55451E-08-4.79181E-08-8.26320E-08
 -1       232-1.55221E-06 6.63710E-07 2.88905E-07 1.22476E-07-9.85390E-08-7.06568E-08
 -1       233 6.94184E-06-2.04494E-06-1.50552E-06-3.83092E-06 3.00634E-06 1.61564E-06
 -1       234 6.90612E-06-6.24597E-06 3.53668E-07-1.02127E-07-4.32096E-08 8.01784E-08
 -1       235 6.11325E-06-2.77903E-06-1.26880E-06-1.57208E-08 3.76875E-08-3.51953E-08
 -1       236 5.24618E-06-1.98992E-06-1.05553E-06-5.21150E-08 7.24612E-08-7.83666E-09
 -1       237 4.43570E-06-1.65167E-06-9.21628E-07 1.89223E-07 9.23192E-08 7.42824E-08
 -1       238 3.57091E-06-1.14071E-06-7.10446E-07 7.59069E-08 2.54675E-07 2.08106E-07
 -1       239 3.43009E-06-1.46943E-06-5.48746E-07 2.31962E-07-2.43526E-07-1.83249E-07
 -1       240 4.38530E-06-1.78018E-06-8.81196E-07 1.78826E-07-6.25081E-08-1.34688E-07
 -1       241 5.12349E-06-1.80712E-06-1.21820E-06 2.05212E-07 4.90963E-08-1.04454E-07
 -1       242 5.66483E-06-2.20183E-06-1.09856E-06 1.30850E-07 4.05236E-09-4.09580E-08
 -1       243 6.07483E-06-2.51083E-06-1.06541E-06 7.31414E-08-2.64796E-07-2.72669E-07
 -1       244 6.27968E-06-2.02351E-06-1.07542E-06-6.23922E-08-1.87489E-08 2.94748E-07
 -1       245 8.43875E-06-4.17595E-06-6.26356E-08 2.20224E-07-3.42727E-06 1.87343E-06
 -1       246 7.19375E-06-2.47116E-06-3.80243E-06 2.09435E-06-4.43681E-06-1.67101E-06
 -1       247-1.13429E-06 3.03778E-06-6.35863E-07-5.07522E-07 1.30825E-07-2.69131E-09
 -1       248-2.39518E-07 5.52869E-07-1.17588E-07-3.71674E-07 1.88594E-07-1.42818E-08
 -1       249 1.60367E-07-6.03739E-07 2.07228E-07-1.45945E-07 1.03829E-07 1.84018E-08
 -1       250 3.26733E-07-1.05455E-06 3.17014E-07-7.26462E-08 5.85943E-08-1.77899E-10
 -1       251 4.08788E-07-1.28561E-06 3.58014E-07-1.91429E-08-1.39615E-08 4.27601E-08
 -1       252 3.75180E-07-1.13563E-06 2.45260E-07 1.35310E-07-1.83935E-07 5.01805E-08
 -1       253 4.13513E-07-1.23165E-06 2.99729E-07 4.81106E-08 5.37523E-08-5.40832E-08
 -1       254 3.93012E-07-1.21408E-06 3.39200E-07-7.21938E-08-1.88332E-09 9.23330E-09
 -1       255 3.34195E-07-8.13578E-07 2.40650E-07 4.76981E-08 3.44452E-08 4.24277E-08
 -1       256 7.77353E-08 1.66429E-07-1.32026E-08-1.61191E-07 7.10877E-09-5.19918E-08
 -1       257-1.22294E-06 2.95852E-06-6.36850E-07-7.25603E-07-1.59868E-07-7.42623E-08
 -1       258-3.32625E-06 1.00299E-06 9.44347E-07-3.41308E-07 3.15271E-08 1.88486E-07
 -1       259-2.02016E-06 9.02878E-07 4.69635E-07-4.31639E-07 8.64468E-08 2.32067E-07
 -1       260-2.38373E-07 5.42617E-08 1.70926E-08-1.88095E-07-6.02918E-08 8.63319E-08
 -1       261 4.59037E-07-7.10882E-08-1.27712E-07 4.15905E-08-1.22315E-07-4.81219E-08
 -1       262 1.09509E-06-7.30336E-08-3.53880E-07-8.79864E-08-3.63869E-08-4.09617E-08
 -1       263 2.63590E-06-7.84124E-07-6.93300E-07-1.91499E-07-1.68345E-07 1.24861E-07
 -1       264 4.26618E-06-1.30163E-06-1.07830E-06-3.46532E-07-1.29914E-07 6.89556E-08
 -1       265 4.17285E-06-1.52901E-06-1.03461E-06-1.82541E-07 6.46591E-08 5.78882E-10
 -1       266 2.24158E-06-9.28242E-07-4.98655E-07-2.24932E-07 8.75382E-08-9.66267E-08
 -1       267 9.15074E-07-3.57429E-07-2.65117E-07-1.90375E-07-1.25397E-08-1.33262E-07
 -1       268 4.63517E-07-1.27928E-07-1.21639E-07-3.17927E-08 6.55704E-09-8.59981E-08
 -1       269-3.74763E-07 1.76770E-07 7.96044E-08-2.14095E-07 1.42214E-08-7.86404E-08
 -1       270-2.07049E-06 6.25903E-07 5.38460E-07-2.79192E-07 4.09725E-09-1.73853E-07
 -1       271-3.36832E-06 9.93638E-07 8.82433E-07-3.34105E-07 2.88248E-08-1.50916E-07
 -1       272-7.63375E-08-7.74820E-08 1.23980E-07 3.24972E-08 1.04259E-07 6.30685E-08
 -1       273-3.05002E-08-4.42232E-08 5.99306E-08 3.30537E-08 2.93810E-08 3.95643E-09
 -1       274 3.69464E-09-1.55118E-09 7.81661E-09-1.48884E-09 2.23760E-09 1.00932E-08
 -1       275 9.72599E-09-1.48290E-08-7.11058E-09-1.00024E-09 4.73046E-10-4.08508E-09
 -1       276 8.37761E-08-7.88429E-08-1.58235E-08 1.55309E-08 2.47606E-08 4.99447E-09
 -1       277 7.15317E-09-3.62963E-07 1.57910E-07-1.73582E-07-7.82109E-08-2.92971E-08
 -1       278-8.13253E-08-2.07636E-07 1.27806E-07-2.47148E-07 7.41420E-08-2.99733E-08
 -1       279 1.31078E-07-8.14523E-08-1.52782E-08 1.34044E-08 5.52655E-09-5.38169E-09
 -1       280 1.24760E-08-9.42817E-09 3.81173E-09 3.40414E-09 1.69882E-09-4.35817E-09
 -1       281-7.05729E-08-1.06777E-08 4.76073E-08 1.68672E-08-6.14929E-09-1.36771E-08
 -1       282-1.64001E-07-6.93257E-08 1.30998E-07 6.18299E-08-9.72513E-08 9.55840E-09
 -1       283 5.50485E-06-1.78622E-06-1.64018E-06 4.38788E-07 6.76723E-08-8.90221E-08
 -1       284 5.13806E-06-1.46144E-06-1.56136E-06-3.24709E-07-5.30797E-08 8.15782E-08
 -1       285 3.60616E-06-1.05452E-06-1.07254E-06-2.54562E-07-1.19551E-07 1.17258E-07
 -1       286 1.88126E-06-5.86236E-07-5.46230E-07-1.19257E-07-4.82378E-09 6.82616E-08
 -1       287 9.90598E-07-3.47790E-07-3.01582E-07-3.97769E-08 4.39494E-08 9.90437E-08
 -1       288 5.50246E-08-3.49353E-09-1.28610E-08-1.31839E-07-1.02434E-08 1.21355E-07
 -1       289-1.74576E-06 5.72978E-07 5.49159E-07-2.81924E-07 5.11138E-09 2.07441E-07
 -1       290-3.30101E-06 9.15716E-07 1.08970E-06-2.62338E-07 3.59354E-09 1.91665E-07
 -1       291-3.63567E-06 1.20598E-06 9.16959E-07 6.19945E-07 1.33578E-07-4.49393E-07
 -1       292 5.39249E-06-1.68738E-06-1.69935E-06 3.27313E-07-4.46165E-08 1.68064E-07
 -1       293 5.22069E-06-1.59957E-06-1.54214E-06-2.39529E-07 1.91530E-08-1.73292E-07
 -1       294 3.29470E-06-9.84842E-07-9.65207E-07-3.43984E-07 2.67890E-08-2.76008E-07
 -1       295 1.48538E-06-4.39119E-07-4.66893E-07-1.31211E-07 4.04001E-08-8.69705E-08
 -1       296 7.84610E-07-2.65826E-07-2.26717E-07 7.59090E-08 1.37362E-08 6.81316E-08
 -1       297-4.49513E-07 4.59119E-08 1.92191E-07-2.07615E-07 2.47381E-08-2.87308E-09
 -1       298-2.33943E-06 6.00311E-07 7.23695E-07-3.88315E-07-4.94722E-08-1.52434E-07
 -1       299-3.67029E-06 7.86404E-07 1.23312E-06-2.16512E-07 1.62440E-08-9.39665E-08
 -1       300-2.50423E-06 1.17475E-06 5.59733E-07 3.11314E-07-2.89283E-08 7.22566E-07
 -1       301 8.21464E-07-2.95727E-07-2.44275E-07 1.96071E-07 1.56819E-08-2.58453E-07
 -1       302 1.55795E-06-3.66140E-07-5.41788E-07 1.23441E-07 1.66320E-08-1.14890E-07
 -1       303 2.55122E-06-6.23031E-07-8.83153E-07 1.95066E-07 1.30036E-07-7.96892E-08
 -1       304 3.68010E-06-8.00097E-07-1.35873E-06 2.81142E-07-1.98818E-08-1.26433E-07
 -1       305 4.54476E-06-7.93235E-07-1.77148E-06 3.57410E-07-9.34902E-08-1.87388E-07
 -1       306 5.00981E-06-2.40728E-07-2.08198E-06 8.62372E-07-3.89887E-07-5.41921E-07
 -1       307 6.50654E-06-2.01612E-06-1.13116E-06-5.14908E-07-1.43971E-06 1.06175E-06
 -1       308-1.74950E-06 1.35038E-06 1.11397E-07-4.00368E-06-3.78764E-07 3.39327E-06
 -1       309-4.74741E-06 1.14475E-06 6.22772E-07 9.29419E-07 8.01318E-07-1.15414E-07
 -1       310-3.83025E-06 4.34339E-07 2.04638E-06 2.57512E-07-1.69205E-08-7.97774E-08
 -1       311-2.90111E-06 4.12507E-07 1.28382E-06 1.38647E-07 2.19599E-08-1.08177E-07
 -1       312-1.95877E-06 1.67876E-07 1.04028E-06 9.49661E-08-6.47060E-09-9.41388E-08
 -1       313-8.37774E-07-6.09045E-08 5.87846E-07 1.50334E-07 1.20324E-07-1.88670E-07
 -1       314 3.27337E-07-3.44980E-07-3.52818E-08 5.16285E-07-1.84843E-07-2.54420E-07
 -1       315 1.19094E-06-3.43312E-06 9.18855E-07 3.99612E-07 3.52376E-07-6.20760E-08
 -1       316 3.03015E-07-1.61655E-06 6.45792E-07-5.02059E-07-3.72956E-07 7.79910E-09
 -1       317-2.37664E-07 7.09831E-07-1.59832E-07-6.96518E-08-1.41746E-07 6.03407E-08
 -1       318-3.43274E-07 1.21177E-06-3.52547E-07-4.96836E-08-6.85283E-08 8.14611E-09
 -1       319-4.76012E-07 1.50996E-06-4.21296E-07-3.06767E-08-5.28069E-09 2.88093E-08
 -1       320-4.48633E-07 1.50111E-06-4.58531E-07 3.32061E-08 6.99968E-08 2.67652E-08
 -1       321-3.81228E-07 8.75541E-07-1.17415E-07 2.63423E-07 3.19767E-07 9.74462E-08
 -1       322 8.61881E-07-9.99325E-08-3.26552E-07-3.06158E-08 1.39109E-10 2.99129E-08
 -1       323 1.30662E-08 2.16459E-08-4.20853E-08-4.98526E-09-1.19773E-08 7.46468E-08
 -1       324 3.38195E-08-1.08936E-11-1.80521E-08 5.25439E-09-1.26236E-09 2.14415E-08
 -1       325 3.24371E-08-5.89558E-10-1.38790E-08-2.67947E-10-1.40699E-10 9.48944E-09
 -1       326 2.04392E-08 5.26889E-10-5.10190E-09-2.44546E-08 4.40226E-09-4.55908E-09
 -1       327 1.79632E-08-2.79833E-08 9.62914E-09-1.84769E-07 1.14265E-08-7.15706E-08
 -1       328-6.09654E-07 1.56414E-07 1.66828E-07-1.61320E-07 1.32712E-07 8.04485E-08
 -1       329 1.17066E-06-2.37630E-07-4.58026E-07 3.17439E-07-3.56590E-08 1.56644E-07
 -1       330 2.02995E-06-3.64865E-07-8.28431E-07 1.70996E-07-2.59060E-08 1.72255E-07
 -1       331 2.75249E-06-4.71851E-07-1.10886E-06 1.55678E-07 9.65475E-08 9.62373E-08
 -1       332 3.90593E-06-7.12933E-07-1.55790E-06 1.99813E-07 3.50039E-08 1.26686E-07
 -1       333 4.75878E-06-7.77094E-07-2.23251E-06 1.65567E-07 1.32936E-08 1.15851E-07
 -1       334 5.09447E-06-4.60207E-07-1.99166E-06 2.21543E-07 7.07906E-07-3.42123E-07
 -1       335 5.23740E-06-1.76359E-06-9.06634E-07-1.17132E-06 1.44914E-06-2.07523E-06
 -1       336-4.04019E-06 1.69199E-06-3.79168E-07-2.82908E-06-1.00023E-06-2.57805E-06
 -1       337-4.72242E-06 3.52289E-07 2.27111E-06 8.96484E-07-1.56423E-07 4.05368E-07
 -1       338-3.42620E-06 5.11730E-07 1.75129E-06 1.85310E-07-4.23231E-08 1.68663E-07
 -1       339-2.73394E-06 3.71168E-07 1.20508E-06 2.23455E-07 5.76452E-08 1.57462E-07
 -1       340-1.89935E-06 1.89175E-07 8.67912E-07 1.96550E-07 1.22326E-08 1.41373E-07
 -1       341-9.38943E-07 3.45544E-08 3.86647E-07 2.67637E-07-1.32955E-07 1.34000E-07
 -1       342-1.36029E-08-3.27079E-07 2.21976E-07 4.19144E-07 5.68142E-08 2.44146E-07
 -1       343 1.48147E-06-3.33856E-06 6.27104E-07 3.14326E-07-4.79766E-07-1.10207E-08
 -1       344 5.11092E-07-2.19474E-06 7.06101E-07-7.24134E-07 4.04435E-07 3.06590E-08
 -1       345-5.40021E-08-1.71052E-07 1.75014E-07-3.18937E-07 2.95830E-07-5.91771E-08
 -1       346-3.30917E-07 1.03995E-06-2.78443E-07 7.52104E-08-5.27818E-08-1.09648E-07
 -1       347-4.07232E-07 1.36892E-06-3.85999E-07-6.04783E-09 2.45355E-08-4.85108E-08
 -1       348-5.02552E-07 1.57481E-06-4.29679E-07 1.59427E-08-2.51593E-10-9.29500E-09
 -1       349-3.70371E-07 1.08719E-06-3.07349E-07 3.35169E-07-1.37922E-07 3.57016E-08
 -1       350 7.15452E-07-1.40018E-08-2.54373E-07-8.04844E-08-2.14689E-08-6.14495E-08
 -1       351 2.97095E-08 1.47703E-08-4.60737E-08-2.18697E-08 6.64097E-09-6.13100E-08
 -1       352 2.73835E-08-3.96565E-10-1.90503E-08 6.90716E-09 1.63451E-09-1.65387E-08
 -1       353 2.05141E-08 7.21969E-11-7.82307E-09-9.42795E-10-1.05428E-09-7.42742E-09
 -1       354 1.59810E-08-1.40028E-09-4.99686E-10-1.81334E-08-4.97445E-09 6.47767E-09
 -1       355-5.02057E-08-1.94487E-08 3.65401E-08-1.53302E-07-3.66229E-08 7.12142E-08
 -1       356-1.00509E-06 2.39385E-07 1.54216E-07 4.42838E-08-7.81563E-08-9.15608E-08
 -1       357-3.33936E-05 3.58754E-05-1.11925E-05 8.23997E-06 8.98363E-07-1.02991E-06
 -1       358 3.01175E-05-1.77265E-05 1.66754E-05 1.27702E-05 1.70131E-06 3.26547E-06
 -1       359-5.27709E-08-7.66436E-09-4.47404E-09 1.40981E-09 3.37568E-10-1.91260E-09
 -1       360 3.04604E-06-1.01501E-05 3.74219E-06-8.13546E-06 1.20230E-06-7.23839E-07
 -1       361-1.05607E-07 2.15933E-06 1.12608E-07-1.38749E-05 2.01631E-07-6.43998E-07
 -1       362-9.24906E-07 1.14376E-05-4.18209E-06-3.34918E-06-3.72977E-07-6.48312E-07
 -1       363-5.75004E-07-2.20490E-06-3.33243E-07 3.75221E-08 8.87242E-07-1.50929E-06
 -1       364-3.20512E-06 7.38715E-06-1.57895E-06-1.03789E-05 3.51570E-06 6.08879E-07
 -1       365 1.93099E-04-5.29692E-04 7.33170E-05-1.26478E-06 1.36162E-05-2.36256E-07
 -1       366 1.57620E-04-4.62319E-04 9.68098E-05-1.10567E-05-3.18656E-06 1.45374E-06
 -1       367-5.58668E-06-4.50590E-05 3.69293E-05 1.37487E-06 6.73213E-06-2.54189E-06
 -1       368-1.78538E-04 5.12487E-04-8.78293E-05 7.13653E-06 1.34303E-05 2.16858E-07
 -1       369-1.55998E-04 4.61306E-04-9.47129E-05-9.72803E-06 4.53486E-06-4.86666E-06
 -1       370-1.85306E-05 7.98096E-05-4.86335E-05-5.67460E-06-6.15321E-06 1.06728E-05
 -1       371-2.50931E-05 9.33887E-05-4.66124E-05-3.04432E-06 3.11288E-06-7.44373E-06
 -1       372 2.96928E-06-2.79025E-07-5.11121E-06-5.28171E-06-3.76438E-06-2.29077E-05
 -1       373-4.40392E-06 4.64021E-07 5.53234E-07-7.96726E-06-7.75464E-07 4.34821E-06
 -1       374 3.32457E-06-5.72057E-06 2.10597E-06 7.72829E-06 4.59462E-07-1.05955E-05
 -1       375-3.67326E-07-1.31365E-06 1.85415E-07-5.31776E-06-7.92294E-07-4.68478E-06
 -1       376-2.94414E-06 3.06851E-06-7.46063E-08 5.17558E-06-7.67694E-07-6.87288E-06
 -1       377-5.25039E-06 1.47875E-06-7.19596E-06 3.77365E-06 2.31067E-06-6.30189E-07
 -1       378-2.62956E-06-1.65131E-06 6.72495E-06-4.72017E-06-3.95255E-06 2.11626E-05
 -1       379-2.36553E-06 5.86607E-07-3.14056E-07-8.43107E-06-2.80012E-07-9.53450E-06
 -1       380-1.40583E-06 4.73986E-06-5.04846E-06 1.09468E-05 4.65324E-07 1.75220E-05
 -1       381 2.73802E-06 6.42674E-07-2.20424E-07-2.85134E-06 1.03422E-07 3.78238E-06
 -1       382-3.60174E-07 5.00179E-07 5.78211E-08-5.27235E-06-3.24539E-07-5.57899E-06
 -1       383 1.79168E-06 6.89652E-06 2.45443E-06-1.45113E-06 1.35960E-06 5.78284E-07
 -1       384 8.77334E-06-9.78497E-06-2.29857E-07-9.51101E-06 1.71103E-07-1.47339E-06
 -1       385-7.74639E-06 9.90584E-06 5.34727E-07-7.61733E-06 7.70017E-07-2.16368E-06
 -1       386 1.93785E-06-8.13471E-07-2.24720E-06 2.99881E-06-6.27268E-07 1.39254E-06
 -1       387-5.93168E-06 1.84978E-06 5.94535E-06-2.25184E-05-3.83341E-07 1.46295E-06
 -1       388 2.01878E-06-1.21807E-06-2.62550E-07 1.91783E-06 4.92057E-07-4.01323E-07
 -1       389-2.13411E-07 3.87511E-06-2.73532E-06-4.17567E-07 1.64725E-06-6.02528E-07
 -1       390-1.13718E-05 7.67621E-06-1.66607E-06-3.99348E-06 6.09450E-06-1.01700E-06
 -1       391 8.20658E-06-1.25398E-05 1.76659E-06-5.85476E-06 1.81964E-07 1.91918E-06
 -1       392-6.16461E-07-9.57001E-08 7.25789E-08 3.16339E-06-1.49263E-06 6.96280E-07
 -1       393 5.37132E-06-3.29762E-06-9.16435E-07-1.78996E-05 2.07573E-07 1.65485E-06
 -1       394-3.94324E-07-5.07167E-06 1.53680E-06 1.21467E-05 1.77641E-07-3.45480E-07
 -1       395-4.48377E-05 1.26643E-04-3.19987E-05-1.07529E-06 2.27509E-06-1.35667E-06
 -1       396-6.29054E-05 2.03409E-04-5.18002E-05-2.28902E-06 2.66703E-06 4.71885E-07
 -1       397 1.48230E-05-3.09379E-05 1.30175E-05 4.68984E-06 1.47392E-06 4.17544E-06
 -1       398 4.26978E-05-1.37665E-04 3.40823E-05-2.08548E-06-2.96716E-06-6.66373E-07
 -1       399-1.24578E-06 6.40554E-07 4.55262E-07-1.49040E-05-1.27967E-07 1.27559E-05
 -1       400-3.86891E-06 2.78233E-05-1.29798E-05 3.96916E-06-1.36616E-06-6.70815E-07
 -1       401 1.19245E-05-4.12641E-05 2.04385E-05-1.39996E-06 3.45366E-06-4.16289E-06
 -1       402-1.98187E-07-5.60717E-08 4.14113E-07 1.19191E-07 2.90810E-09-9.12570E-09
 -1       403 1.43247E-06-4.55787E-07-8.82678E-07-3.75278E-07 1.15715E-07-1.67604E-07
 -1       404-6.54125E-07-2.64496E-08 4.34356E-07 3.37105E-07-3.49515E-08-1.78027E-07
 -1       405-1.40055E-06 2.78444E-07 6.77166E-07 2.81147E-07-1.81294E-08-1.47601E-07
 -1       406-2.08323E-06 3.54848E-07 1.05770E-06 2.87538E-07 9.87337E-08-1.28862E-07
 -1       407-2.74779E-06 2.36460E-07 1.47827E-06 3.15549E-07 1.48263E-07-1.75881E-07
 -1       408-3.22448E-06-1.95210E-07 1.95794E-06 2.33130E-07 3.85708E-07-1.13995E-07
 -1       409-3.76793E-06-5.62669E-07 1.23220E-06 2.58608E-06 3.14103E-06-2.26850E-06
 -1       410 3.06274E-06-1.23767E-05 2.08670E-06-4.71954E-06 1.00380E-05 8.95272E-07
 -1       411-5.86164E-07-1.48050E-05 8.10342E-07-1.52341E-05-1.52241E-05 9.05652E-06
 -1       412 4.95973E-06-6.17359E-07-4.71923E-06 2.14716E-06-2.13958E-06-1.78451E-06
 -1       413 5.59506E-06-2.07440E-06-2.26842E-06 5.04357E-07-2.85288E-07-3.46283E-07
 -1       414 4.98906E-06-1.04395E-06-1.91248E-06 3.14754E-07-1.39232E-07-2.91284E-07
 -1       415 4.63242E-06-1.50166E-06-1.86122E-06 1.56453E-07-4.91883E-09-1.02816E-07
 -1       416 4.06597E-06-8.13414E-07-1.67539E-06 2.69620E-07-9.76924E-08-1.79375E-07
 -1       417 3.32936E-06-6.91367E-07-1.24078E-06 3.36685E-07-2.07708E-07-2.54151E-07
 -1       418 2.59996E-06-6.97618E-07-1.01483E-06 5.60500E-07 1.28143E-07-5.00094E-07
 -1       419-5.64272E-07-4.54932E-08 3.41913E-07 3.30709E-07-9.50023E-08 1.27463E-07
 -1       420-1.20246E-06 1.02536E-07 4.84474E-07 3.02961E-07-1.70595E-07 1.82186E-07
 -1       421-1.82841E-06 3.81493E-07 7.68950E-07 2.49680E-07-7.67049E-08 1.63432E-07
 -1       422-2.41354E-06 3.76392E-07 1.17955E-06 3.41475E-07 4.78868E-08 2.02551E-07
 -1       423-2.91588E-06 3.00190E-07 1.43685E-06 3.82871E-07-2.23819E-08 1.43694E-08
 -1       424-3.06921E-06 1.70087E-07 1.62777E-06 1.17374E-07-6.20962E-08-2.05854E-07
 -1       425-4.32890E-06-2.52030E-06 7.73136E-06 3.05506E-06-5.75303E-06 4.67460E-06
 -1       426 4.97731E-06-1.64790E-05 2.35369E-06-4.13927E-06-1.48322E-05-2.27102E-06
 -1       427-5.92983E-06-1.34268E-05-1.80863E-06-2.45113E-05 1.21981E-05-1.03962E-05
 -1       428 4.38127E-06 1.22306E-05-3.58482E-06 2.61287E-06 1.40974E-05 2.68418E-06
 -1       429 5.80838E-06 1.16200E-06-2.65888E-06 1.43282E-06 1.19718E-06 1.57230E-06
 -1       430 5.18329E-06-1.07249E-06-2.37634E-06 2.00783E-07 1.11415E-07 4.53570E-08
 -1       431 4.56689E-06-9.79989E-07-1.80452E-06 2.67477E-07-6.28253E-08 9.25394E-08
 -1       432 3.99113E-06-8.46438E-07-1.60684E-06 1.90028E-07-1.22842E-08 1.16774E-07
 -1       433 3.37706E-06-6.38092E-07-1.24297E-06 3.73789E-07-6.15479E-08 2.11102E-07
 -1       434 2.57142E-06-4.61903E-07-8.58903E-07 3.90061E-07 3.33328E-07 2.66250E-07
 -1       435-8.99181E-07-1.87525E-07 4.27232E-07-8.23890E-07-1.51193E-07 1.86113E-08
 -1       436 1.15191E-06-3.37606E-07-3.63123E-07-2.70829E-07 1.60565E-07-5.71774E-07
 -1       437-5.62212E-09-4.58929E-08 3.28098E-08 4.09654E-08-5.07576E-08-8.70444E-08
 -1       438-1.94017E-08-1.12703E-08 1.12721E-08 9.32318E-09 4.25051E-11-3.11357E-08
 -1       439 1.62513E-08-1.17265E-08-3.41429E-09-5.03170E-09 4.61925E-09 7.47205E-09
 -1       440 6.71960E-08-6.92439E-08 1.86072E-08-7.42957E-09-8.31616E-09 3.84757E-08
 -1       441-1.50280E-07-1.86281E-07 1.40905E-07-1.14471E-07 7.21243E-08 7.32059E-09
 -1       442-3.23987E-07-5.51636E-07 4.03521E-07-6.62658E-07 5.87839E-07 6.51958E-07
 -1       443 8.99399E-07-1.38886E-07-3.07116E-07-4.15349E-07-1.19005E-07 2.13030E-07
 -1       444 6.96309E-08-5.61248E-08 4.98019E-08 6.00533E-08 1.28348E-07 7.01728E-08
 -1       445 2.46680E-08-1.67575E-08-4.17718E-09 7.14390E-09 1.02725E-08 1.84472E-08
 -1       446 1.43331E-08-7.08972E-09-8.11678E-09-2.42093E-09-7.88163E-10 4.56808E-09
 -1       447 5.68617E-08-4.79732E-08 1.26564E-09 4.86104E-09-1.23616E-09 1.92421E-08
 -1       448 5.44081E-08-2.31149E-07 9.88985E-08-1.43100E-07-2.79181E-08 1.23133E-08
 -1       449-8.53356E-07-2.89345E-07 4.40552E-07-7.22509E-07-3.89478E-07-3.19431E-07
 -1       450 1.29803E-06 6.05371E-07-1.55984E-06-1.03190E-06-1.64315E-07 2.09769E-07
 -1       451-2.03006E-06 2.39230E-07 7.19342E-07 2.82852E-07-5.29632E-07 8.14759E-08
 -1       452-2.09871E-06 5.18447E-07 6.29248E-07-4.16924E-07-5.41926E-08-2.16415E-07
 -1       453-8.82030E-07 9.06017E-08 2.23469E-07-4.01604E-07-5.05478E-08-2.12452E-07
 -1       454 2.51247E-07-2.25053E-07-1.09114E-07-1.79582E-07 5.65305E-08-1.09520E-07
 -1       455 7.17382E-07-1.99529E-07-2.34042E-07-1.16941E-07-6.20919E-08-8.46313E-08
 -1       456 1.49561E-06-4.48293E-07-4.89583E-07-3.45266E-07-1.31456E-07-1.58084E-07
 -1       457 2.90180E-06-7.05712E-07-8.93398E-07-4.52449E-07 2.99059E-08-1.65647E-07
 -1       458 3.06639E-06 1.31762E-07-1.36129E-06-1.40439E-07 2.85144E-07 9.41984E-08
 -1       459-1.98993E-06 1.00112E-07 7.51474E-07-2.07010E-07 2.61423E-07-3.68893E-09
 -1       460-2.10712E-06 4.75839E-07 7.34765E-07-4.43518E-07-1.98971E-08 2.52627E-07
 -1       461-1.14741E-06 2.32724E-07 3.25060E-07-3.98126E-07 6.80490E-09 3.07465E-07
 -1       462 2.98881E-08-3.34080E-07-2.94756E-08-1.63278E-07-1.71561E-07 1.17392E-07
 -1       463 5.60972E-07-2.36283E-07-1.91851E-07-5.12452E-08-6.34303E-08 4.77584E-08
 -1       464 1.03660E-06 1.30096E-07-3.50699E-07-1.81542E-07 1.85346E-07 1.72682E-07
 -1       465 2.10259E-06-2.96696E-07-6.83257E-07-3.87489E-07 1.51830E-08 2.50210E-07
 -1       466 3.30349E-06-7.16782E-07-1.01303E-06-4.91794E-07-3.80735E-08 1.57356E-07
 -1       467 2.87998E-06 5.64881E-08-1.48137E-06 3.79926E-07-6.52923E-07-7.67193E-09
 -1       468-4.10283E-07 1.86823E-06-1.09482E-06 1.03770E-07-2.10760E-07 7.08695E-07
 -1       469-3.04005E-07 1.92607E-06-6.50671E-07-5.86813E-07-2.51505E-07 9.31103E-09
 -1       470 2.15363E-07 1.82130E-07-1.62360E-07-2.28974E-07-1.16224E-07-3.45377E-08
 -1       471 1.52141E-07-5.49099E-07 1.31830E-07-1.33197E-07-1.12908E-07-6.56633E-08
 -1       472 3.29668E-07-9.00479E-07 2.24377E-07-1.09338E-07-7.30122E-08-1.34831E-07
 -1       473 3.23876E-07-9.59115E-07 2.54686E-07 7.17880E-08 2.98417E-08-4.06879E-08
 -1       474 1.83499E-07-4.84228E-07 2.43588E-07 2.25675E-07 1.98300E-07-1.29468E-08
 -1       475 6.99875E-07 2.12687E-06-1.32394E-06-2.94093E-07 1.69068E-07-4.18870E-07
 -1       476-3.89892E-07 1.63304E-06-5.74602E-07-8.09284E-07 3.01424E-07 4.59348E-09
 -1       477 3.07378E-08 6.89026E-08-1.04307E-07-4.12419E-07 1.52834E-07 8.12921E-08
 -1       478 2.07574E-07-6.29464E-07 1.68629E-07-8.40862E-08 6.34462E-08-1.19528E-08
 -1       479 2.68871E-07-9.12671E-07 2.59835E-07-4.85411E-08 2.64910E-08-1.46203E-08
 -1       480 2.39443E-07-9.47392E-07 2.58226E-07 1.35286E-07-1.32140E-07 7.74706E-08
 -1       481 4.57426E-08-5.72563E-07 2.89209E-07 3.29950E-07-1.70361E-07 9.75074E-08
 -1       482 2.11996E-06-7.62693E-07-8.22663E-09 1.16680E-07 4.41091E-08 6.35738E-08
 -1       483-4.28956E-08-1.93950E-07 5.28501E-07 3.52533E-07 1.94734E-07-8.12070E-08
 -1       484 3.87796E-06-9.70820E-07-9.82458E-07 2.57079E-07 2.29081E-07-4.95582E-07
 -1       485 4.66280E-06-1.56871E-06-1.25994E-06-4.37860E-08-6.34647E-08 4.10461E-08
 -1       486 3.98155E-06-1.17010E-06-1.11419E-06-1.94881E-07-2.39200E-08 1.14483E-07
 -1       487 2.67348E-06-7.59157E-07-7.81697E-07-1.46034E-07-2.88789E-09 1.32207E-07
 -1       488 1.34726E-06-2.99672E-07-4.12025E-07-1.35854E-07 5.28144E-08 3.42705E-08
 -1       489 6.23743E-07-1.66626E-07-1.83021E-07-1.45974E-07-1.65059E-08 1.53173E-07
 -1       490-5.69393E-07 1.14751E-07 1.45072E-07-3.62819E-07 1.26400E-08 2.00653E-07
 -1       491-2.03085E-06 6.23188E-07 4.78531E-07-3.86289E-07 8.33875E-08 2.27327E-07
 -1       492-2.78551E-06 1.14678E-06 5.63777E-07 1.83313E-07 6.50047E-08-4.25516E-08
 -1       493-1.36332E-06 5.42715E-07 3.90708E-07 8.77513E-07-2.19545E-07-7.98367E-07
 -1       494 4.02055E-06-1.35427E-06-1.01345E-06 6.35099E-07 5.35655E-08 6.46643E-07
 -1       495 4.50387E-06-1.54027E-06-1.23209E-06-6.53301E-08 2.42191E-08-1.63286E-08
 -1       496 3.63726E-06-1.26813E-06-1.04084E-06-5.60652E-07 1.93851E-08-2.87921E-07
 -1       497 2.07691E-06-5.06173E-07-6.74679E-07-4.07174E-07 6.88593E-08-2.27930E-07
 -1       498 1.10478E-06-2.70008E-07-4.43497E-07-5.61543E-08-6.27409E-08-5.20534E-09
 -1       499 5.07801E-07-4.97276E-08-2.08768E-07-1.51323E-07-2.19239E-08-9.74415E-08
 -1       500-7.28007E-07 1.50406E-07 1.35911E-07-2.31468E-07-2.65290E-08-2.37046E-07
 -1       501-2.15680E-06 6.41117E-07 4.96244E-07-2.48862E-07 1.48168E-08-2.36822E-07
 -1       502-2.93643E-06 1.20057E-06 5.49481E-07-4.00727E-08 7.77014E-08 2.97438E-07
 -1       503-1.13803E-06 4.73446E-07 3.68344E-07 1.50780E-06 3.41919E-08 1.10005E-06
 -1       504 4.33988E-07-1.18163E-07-1.07433E-07 4.02776E-07-2.26683E-08-2.37659E-07
 -1       505 1.14432E-06-4.28955E-07-1.60383E-07 3.66770E-07-3.40903E-08-2.23534E-07
 -1       506 1.91615E-06-8.70711E-07-3.93218E-07 1.59589E-07 7.35741E-08-8.81361E-08
 -1       507 2.63796E-06-1.29497E-06-5.06891E-07 1.68470E-07-2.91543E-08-1.54389E-07
 -1       508 3.37249E-06-1.96663E-06-5.28732E-07 1.66489E-07 7.23338E-09-1.25967E-07
 -1       509 3.98398E-06-2.58262E-06-4.92026E-07 2.53731E-07 3.40550E-09-1.10816E-07
 -1       510 4.60580E-06-3.31712E-06 8.08291E-07 1.83306E-07-7.38937E-07 1.61805E-07
 -1       511 2.61813E-06-1.17960E-06 1.28954E-06-2.37386E-06-3.42829E-07 2.15076E-06
 -1       512-3.15868E-06 1.03414E-06-5.80969E-07-1.68971E-06 6.90038E-07 1.55824E-06
 -1       513-3.14804E-06 1.67931E-06 8.06749E-08 6.19282E-07 5.38978E-07-1.66413E-07
 -1       514-2.42873E-06 1.43537E-06 4.72759E-08 2.95395E-07-1.93262E-08-1.40949E-07
 -1       515-1.68824E-06 1.01723E-06-8.42811E-08 2.01481E-07 2.29520E-08-6.54449E-08
 -1       516-8.66044E-07 6.71267E-07-2.39442E-07 2.96534E-07 2.17945E-08-1.30293E-07
 -1       517-8.42163E-09 3.62091E-07-3.40587E-07 3.52673E-07-7.57256E-09-2.66515E-07
 -1       518 7.96178E-07-1.87296E-07-1.80380E-07 4.81993E-07-2.58249E-07 3.41170E-08
 -1       519 7.54791E-07-7.55145E-08-3.27003E-07 2.76711E-07-1.22337E-07 1.52776E-08
 -1       520 4.83972E-07-1.63909E-08-2.45117E-07-7.56514E-08 1.19333E-08-2.76148E-08
 -1       521 1.63915E-08 7.85662E-09-2.87034E-08 2.90809E-08-4.25270E-09 4.49842E-08
 -1       522 3.33499E-08-8.32096E-10-2.37636E-08 9.26953E-09-4.56900E-09 1.21515E-08
 -1       523 3.02294E-08-1.06411E-09-9.59920E-09-5.14572E-09 2.41905E-09-1.18313E-09
 -1       524 1.12641E-08-5.76522E-09-4.44602E-09-7.61211E-09 1.03689E-08-7.06324E-09
 -1       525 3.37909E-09-2.67931E-08 1.94944E-08-3.86186E-08 6.48378E-08-3.73919E-08
 -1       526-5.59668E-07 4.57624E-08 2.06640E-07-3.43424E-07 1.61137E-07 1.28401E-07
 -1       527 3.75042E-07 5.01232E-08-9.35017E-08 1.04100E-07-8.91948E-08 1.16200E-07
 -1       528 5.42716E-07-1.57020E-06 3.67828E-07 1.27146E-06 8.39624E-07 1.84272E-07
 -1       529 1.00084E-06-2.07183E-06 4.06478E-07-6.54562E-07-3.39895E-07 3.17580E-08
 -1       530 1.88762E-07-1.05564E-07-2.19534E-08-5.55828E-07-3.43262E-07 7.10501E-08
 -1       531-2.28638E-07 8.58064E-07-2.72458E-07-1.38743E-07-1.23090E-07 9.84891E-09
 -1       532-2.87658E-07 1.12024E-06-3.51317E-07-5.45633E-08-4.52672E-08-7.37332E-09
 -1       533-3.55611E-07 1.26052E-06-3.61016E-07 6.60420E-09 2.88636E-08 2.40126E-08
 -1       534-3.60523E-07 1.05208E-06-2.81321E-07 2.64006E-07 1.56670E-07-1.16866E-08
 -1       535-1.09785E-07 4.59263E-07-6.27703E-08 4.80244E-07 2.82873E-07 1.14508E-08
 -1       536 4.25676E-07-8.61288E-08-6.45340E-08 2.64752E-07-9.24375E-08 2.56323E-07
 -1       537 1.17864E-06-3.88077E-07-1.89457E-07 1.71860E-07-6.19334E-08 1.35620E-07
 -1       538 1.90397E-06-8.39137E-07-3.92890E-07 2.33473E-07-5.41552E-08 1.63234E-07
 -1       539 2.63312E-06-1.18466E-06-4.12983E-07 2.90258E-07 6.02418E-08 1.40808E-07
 -1       540 3.45453E-06-1.63454E-06-4.97634E-07 2.92459E-07 1.63270E-09 1.35121E-07
 -1       541 4.10881E-06-2.12428E-06-2.88983E-07 2.25074E-07 3.23906E-08 2.17287E-08
 -1       542 4.47175E-06-2.50191E-06 3.51178E-07-4.13592E-07 3.87373E-07-8.35453E-07
 -1       543 4.50365E-07-9.98150E-07-8.57079E-07-4.14890E-06-7.25696E-07-3.02389E-06
 -1       544-3.76731E-06 2.90728E-06-5.25499E-07-1.79464E-07-5.50034E-07-3.91690E-07
 -1       545-2.73642E-06 1.57619E-06 3.69836E-08 4.87485E-07-5.69941E-09 2.35810E-07
 -1       546-2.06728E-06 1.16483E-06-5.58969E-09 1.47842E-07-5.04090E-08 1.18879E-07
 -1       547-1.40553E-06 8.94707E-07-1.24039E-07 1.35415E-07-3.21376E-08 9.98206E-08
 -1       548-6.51560E-07 4.61272E-07-2.39985E-07 1.71388E-07-1.82542E-07 9.39135E-08
 -1       549 8.26727E-08 3.14818E-07-4.05746E-07 3.11215E-07-1.04027E-07 1.86040E-07
 -1       550 8.68791E-07-1.98426E-08-4.14023E-07 6.25705E-07-5.84260E-08 5.93338E-07
 -1       551 6.57105E-07-1.00770E-10-3.53095E-07 1.57923E-07 7.05872E-08 9.18871E-08
 -1       552 3.90941E-07-1.03716E-09-1.78721E-07-7.78231E-08-4.03493E-08 2.89145E-08
 -1       553 4.55284E-09 2.82771E-09-3.20438E-08 1.04375E-08 8.58363E-09-5.40032E-08
 -1       554 2.69288E-08-6.14764E-10-1.62872E-08 3.22547E-09 2.11261E-09-9.65131E-09
 -1       555 2.85504E-08-1.66017E-09-9.98351E-09-1.89865E-08-7.60642E-09 9.13289E-09
 -1       556 8.21894E-09-1.30349E-08 2.62584E-08-1.17337E-07-5.26347E-08 3.73788E-08
 -1       557-4.61648E-07-4.61459E-08 1.72194E-07-2.79920E-07-1.49368E-07-8.16339E-08
 -1       558 3.64181E-07 6.16435E-08-2.24648E-07 2.44301E-07-1.69935E-07 4.66877E-07
 -1       559 4.97848E-07-1.51809E-06 2.86016E-07 1.38271E-06-1.16395E-06-4.00387E-08
 -1       560 1.25808E-06-2.38662E-06 3.23215E-07-3.90469E-07 1.22920E-07-1.07589E-07
 -1       561 4.43804E-07-8.30559E-07 1.30357E-07-7.75180E-07 4.56042E-07 3.17453E-08
 -1       562-1.19063E-07 6.46104E-07-2.57097E-07-2.72567E-07 1.46767E-07 8.62597E-08
 -1       563-2.06663E-07 1.04407E-06-3.29167E-07-2.42940E-08 2.21551E-08-6.09862E-08
 -1       564-3.37356E-07 1.26374E-06-3.82235E-07-1.38273E-08 3.19531E-08-3.08413E-08
 -1       565-3.71783E-07 1.05977E-06-2.82816E-07 1.15411E-07-8.20033E-08-7.65494E-09
 -1       566-8.34200E-08 3.62954E-07-5.41495E-08 2.48689E-07-2.70273E-07 9.30720E-09
 -1       567 4.71799E-07-7.05425E-08-4.51540E-08 2.98806E-08-1.64918E-07 5.74242E-08
 -1       568 8.46508E-08 2.27051E-08-2.42839E-07-1.96771E-09-8.13537E-08-5.00386E-08
 -1       569-7.01812E-11 6.38278E-06 9.72200E-07 3.53378E-05-4.73712E-06-1.82557E-05
 -1       570-8.72509E-12 2.88086E-05-7.28311E-06 1.10217E-05-3.88033E-05-8.67618E-06
 -1       571-1.80993E-05 4.31548E-05 2.24387E-06 4.39917E-06 8.43165E-06 7.77748E-06
 -1       572 8.62973E-11 3.02236E-05-6.69539E-06 9.75265E-06 2.81549E-05 7.01258E-06
 -1       573 8.62977E-11-7.48124E-06-7.22896E-07 3.58259E-05-3.89849E-06 1.77261E-05
 -1       574-5.31878E-11-3.65855E-05 3.69113E-06 1.16658E-05-3.16319E-05 9.11727E-06
 -1       575-4.88386E-11-4.40234E-05 1.71330E-06 1.58580E-05-6.16325E-06-1.48573E-06
 -1       576-7.01810E-11-2.86360E-05 6.38690E-06 7.28132E-06 3.08352E-05-8.38584E-06
 -1       577 1.96173E-04-5.38038E-04 3.60719E-05-5.30746E-05 6.77383E-05 1.96713E-05
 -1       578 1.91665E-04-5.41721E-04 9.73546E-05 4.55917E-07 2.97608E-05 4.79285E-06
 -1       579 1.59444E-04-4.64054E-04 9.81439E-05 7.76391E-06-7.04292E-06 2.44150E-06
 -1       580 1.17342E-04-3.59148E-04 9.16314E-05-2.81954E-07-7.48311E-06 1.68542E-06
 -1       581 5.80619E-05-2.32540E-04 8.83856E-05 4.19882E-06-1.07210E-05-4.10379E-06
 -1       582 2.45666E-05-1.23239E-04 5.52108E-05 1.69438E-06 4.44033E-06 3.31961E-07
 -1       583 3.60256E-05-1.06416E-04 2.55301E-05 2.31694E-05-1.63974E-05 9.10977E-06
 -1       584 1.21731E-05-4.41620E-05 8.46309E-06 2.20054E-05-3.37500E-05 9.19362E-06
 -1       585 1.94412E-04-5.33161E-04 5.39758E-05-1.25754E-05-7.75646E-05-3.60505E-05
 -1       586 1.76857E-04-5.36669E-04 9.77066E-05-3.46567E-06-3.05518E-05-3.56760E-06
 -1       587 1.46803E-04-4.53437E-04 1.04166E-04 1.03721E-05 1.36560E-06-4.90217E-06
 -1       588 1.10069E-04-3.57170E-04 9.05309E-05 1.33683E-06-5.18929E-06-3.20373E-07
 -1       589 8.61355E-05-2.48675E-04 5.93751E-05 4.05657E-06 1.66524E-05-6.16437E-06
 -1       590 2.92488E-05-1.18405E-04 5.51946E-05-4.39158E-06 1.03367E-05 4.29502E-06
 -1       591 2.60255E-05-9.10569E-05 2.90231E-05 3.24670E-06 1.88824E-05 1.39615E-06
 -1       592 1.28719E-05-4.04236E-05 2.19197E-06 1.05603E-05 4.24075E-05-2.45350E-06
 -1       593 9.77659E-05-2.07886E-04 1.12144E-05-9.76298E-06 2.91233E-05-4.15365E-06
 -1       594 1.02110E-04-2.84716E-04-7.85445E-07 6.86804E-05 4.32606E-07-6.73886E-07
 -1       595 8.47635E-05-2.18836E-04 1.58574E-05-1.21947E-05-2.60062E-05 2.80619E-05
 -1       596-1.88582E-04 5.22690E-04-4.55258E-05-4.86588E-05 6.58952E-05-1.97756E-05
 -1       597-1.90646E-04 5.39942E-04-9.76037E-05-3.27197E-07 2.95632E-05-5.76443E-06
 -1       598-1.51010E-04 4.53542E-04-1.05047E-04-5.21081E-07-8.31211E-07-4.89672E-06
 -1       599-1.18112E-04 3.55049E-04-8.99687E-05-1.35512E-07 4.70746E-06-7.06041E-07
 -1       600-8.61236E-05 2.48740E-04-5.92405E-05 5.16578E-06-1.59908E-05-4.73463E-06
 -1       601-2.33695E-05 1.19830E-04-5.54153E-05 4.98675E-07-1.00457E-05 2.42514E-06
 -1       602-1.26493E-05 9.10150E-05-3.77819E-05 1.21789E-05-2.20362E-05-6.20342E-07
 -1       603-3.94459E-06 3.58428E-05-6.92091E-06 1.79608E-05-3.53392E-05-1.10217E-05
 -1       604-1.80233E-04 5.40608E-04-4.27184E-05-2.48962E-05-7.82912E-05 5.14050E-05
 -1       605-1.80984E-04 5.36885E-04-9.97530E-05-1.34251E-05-2.92030E-05 1.62425E-05
 -1       606-1.51963E-04 4.64837E-04-1.00792E-04 8.18886E-06 1.03087E-05 8.13809E-06
 -1       607-1.12716E-04 3.59652E-04-9.06964E-05 1.86747E-07 8.01611E-06 1.93920E-06
 -1       608-6.00744E-05 2.32444E-04-8.83233E-05 4.08951E-06 1.01191E-05-4.26186E-06
 -1       609-3.72102E-05 1.22882E-04-5.47805E-05-2.33558E-06-3.58459E-06-2.01985E-06
 -1       610-3.43778E-05 1.04205E-04-1.81559E-05 5.74301E-06 1.98702E-05 4.10588E-06
 -1       611-1.58278E-05 4.91813E-05-2.23150E-06 8.61578E-06 3.77324E-05 3.38268E-06
 -1       612-7.13361E-05 1.73952E-04-1.62476E-05-8.63561E-06 2.04590E-05 3.68734E-06
 -1       613-1.38237E-04 3.56884E-04-6.27846E-07 1.66972E-05 8.45668E-07-4.76697E-06
 -1       614-5.37060E-05 1.59239E-04-5.61831E-06-8.08969E-06-2.31512E-05-1.30162E-05
 -1       615-2.28999E-06-5.35141E-06 8.21710E-06-1.03186E-04 7.32005E-06-8.42045E-06
 -1       616-8.97163E-07 3.64494E-07 1.94698E-07 1.90695E-07 1.07060E-07 6.68336E-08
 -1       617-1.64018E-06 6.32197E-07 3.28023E-07 1.87224E-07-4.29654E-08 7.51413E-08
 -1       618-2.45333E-06 9.61150E-07 3.96363E-07 1.32873E-07-2.56987E-07-3.55307E-08
 -1       619-3.19209E-06 1.34579E-06 4.75631E-07 1.60289E-07-2.16553E-07-2.23244E-08
 -1       620-3.85495E-06 1.74723E-06 2.75638E-07 4.70525E-08-2.90476E-07-1.63471E-07
 -1       621-3.73554E-06 2.36894E-06-7.12983E-07-7.95205E-07-5.47158E-07-4.27322E-07
 -1       622-3.26449E-06 1.26121E-05-2.41585E-06-1.97207E-06 2.97498E-06-4.91536E-06
 -1       623 1.35507E-06-3.25937E-06 1.10304E-05 8.34605E-06-3.93815E-06 2.23366E-05
 -1       624 2.19138E-06-1.66505E-06 8.28889E-06 6.01180E-07 2.67960E-06-1.87829E-05
 -1       625-2.71014E-06 3.55605E-06-1.94649E-07-1.12021E-07 2.61236E-06 1.42073E-06
 -1       626-4.12933E-06 2.30036E-06 8.72259E-07-7.59090E-07-3.88327E-07 5.33026E-07
 -1       627-3.71996E-06 1.73308E-06 6.49656E-07 7.27515E-08-6.10046E-08 5.68823E-08
 -1       628-2.88377E-06 1.31165E-06 5.82981E-07 1.74839E-07-8.03812E-08-8.49273E-09
 -1       629-1.97284E-06 9.73192E-07 3.69980E-07 2.04188E-07-3.54606E-08-5.23199E-08
 -1       630-1.04460E-06 3.99051E-07 2.63979E-07 2.03566E-07 9.88885E-08-7.21358E-08
 -1       631-3.61633E-07-1.82577E-07 2.66461E-07-1.82954E-07 4.81084E-09-1.49041E-08
 -1       632-1.10081E-05 7.91230E-06 1.66273E-05-7.36518E-05-1.46534E-05-3.76848E-06
 -1       633-3.35978E-07 8.87104E-06-1.29046E-05 6.41171E-06 3.79370E-06 2.50948E-05
 -1       634 6.26237E-06-8.76930E-06 1.98871E-06-1.29078E-06 4.45866E-06-1.16485E-06
 -1       635 6.50542E-06-1.98401E-06-1.51247E-06-1.20645E-07-1.29616E-07-5.34358E-08
 -1       636 5.65560E-06-2.30018E-06-1.20945E-06 1.40508E-07 2.71303E-08 4.71886E-09
 -1       637 4.88347E-06-2.14894E-06-1.03184E-06 1.28836E-07 1.24753E-07 9.13083E-08
 -1       638 4.04348E-06-1.72693E-06-8.80453E-07 2.00428E-07 1.95677E-07 1.66299E-07
 -1       639 3.43168E-06-6.53923E-07-7.32447E-07-1.74974E-07 6.73469E-07 1.18973E-07
 -1       640 1.79348E-06-6.55159E-07-6.12286E-07-4.99688E-07-1.79514E-08-2.03623E-07
 -1       641 3.27623E-06-9.54231E-07-8.47561E-07 1.02008E-07 9.59377E-08-2.33800E-07
 -1       642 3.95449E-06-1.87136E-06-6.89084E-07 1.95920E-07-2.38240E-07-1.42584E-07
 -1       643 4.81461E-06-2.09482E-06-9.75756E-07 1.46340E-07-8.17813E-08-1.05150E-07
 -1       644 5.49726E-06-2.22260E-06-1.02239E-06 1.85249E-07-5.12468E-08-2.97121E-08
 -1       645 5.84963E-06-1.87924E-06-1.36033E-06 7.82885E-08-7.11893E-09-1.03022E-07
 -1       646 5.95478E-06-1.60687E-06-1.27627E-06-1.92533E-07-1.11900E-07 1.48695E-07
 -1       647 6.87274E-06-5.67203E-06 4.73732E-07-4.39553E-07-3.19771E-06 1.17446E-06
 -1       648 8.44120E-06-1.17574E-06-1.89592E-06-1.36145E-06-4.34347E-06 1.58276E-06
 -1       649-1.45179E-06-3.74931E-06-1.46915E-06 5.26812E-06-1.93055E-06-1.08655E-05
 -1       650-1.92722E-07 3.36601E-06-1.14250E-06-2.03542E-07-2.04788E-08-3.02829E-07
 -1       651-5.97283E-07 1.81765E-06-3.89782E-07-4.40633E-07 1.80379E-07 2.78488E-09
 -1       652-9.55278E-08-2.58862E-08 5.33988E-08-2.60117E-07 1.31487E-07-3.74745E-08
 -1       653 2.21423E-07-8.33384E-07 2.76163E-07-9.95231E-08 6.17414E-08 7.85927E-09
 -1       654 3.68908E-07-1.17163E-06 3.43233E-07-3.71831E-08 9.15786E-09 3.08350E-08
 -1       655 3.99872E-07-1.25451E-06 3.24367E-07 1.04131E-07-9.97082E-08 6.07519E-08
 -1       656 1.64808E-07-9.54492E-07 2.73816E-07 2.42968E-07-2.26923E-07 5.48965E-08
 -1       657 2.90456E-07-9.91677E-07 2.65481E-07 1.67992E-07 1.69065E-07-7.55459E-08
 -1       658 2.55067E-07-1.26493E-06 3.36889E-07 1.27139E-08-8.78980E-10 6.42656E-08
 -1       659 2.33504E-07-9.93901E-07 3.05162E-07-3.13105E-08-1.27962E-08 1.83210E-08
 -1       660-1.73856E-07-4.00784E-07 2.57954E-07-1.25904E-07-7.87157E-08 6.58271E-08
 -1       661-1.19276E-08 1.37959E-06-2.79720E-07-3.10098E-07-3.85316E-07-2.21069E-07
 -1       662-2.91937E-07 3.44834E-06-1.12440E-06-4.84477E-07-1.80817E-07 4.11084E-07
 -1       663 2.34498E-06 1.36087E-06-1.27414E-06-1.62422E-06-3.78301E-08 5.52109E-08
 -1       664-3.45649E-06 9.01527E-07 9.55717E-07-2.77081E-07 2.47935E-07 1.56731E-09
 -1       665-2.63053E-06 5.56550E-07 7.55799E-07-2.91637E-07-9.42845E-08 2.87694E-07
 -1       666-9.89905E-07-1.72045E-07 2.24479E-07-2.24566E-07-1.78906E-07 3.75304E-07
 -1       667 1.84856E-07 9.36779E-09-1.30261E-07-1.27813E-07-1.46981E-09 1.09783E-07
 -1       668 7.76853E-07-1.34911E-07-2.68483E-07-5.35551E-09 7.39392E-08 7.16050E-08
 -1       669 1.90123E-06 6.37282E-08-6.02419E-07-2.21699E-07 2.74494E-07 2.04208E-07
 -1       670 3.60486E-06-7.12158E-07-1.00358E-06-4.72293E-07 3.20349E-08 1.11289E-07
 -1       671 4.53908E-06-7.12705E-07-1.39116E-06-3.24321E-07-2.87871E-07-2.35982E-07
 -1       672 4.38306E-06-8.96454E-07-1.33514E-06-2.32868E-07 1.89076E-07 1.03403E-07
 -1       673 3.32518E-06-1.09000E-06-8.35034E-07-4.06064E-07 1.33070E-07-7.15309E-08
 -1       674 1.63710E-06-6.49210E-07-4.11752E-07-2.93951E-07 7.15491E-08-1.13935E-07
 -1       675 7.17260E-07-1.88614E-07-1.77407E-07-2.59016E-08 7.63549E-10-1.35515E-07
 -1       676 1.60969E-07 1.36336E-07-5.38123E-08-7.11460E-08-7.86261E-09-5.76304E-08
 -1       677-1.13026E-06 3.40591E-07 2.86525E-07-1.27910E-07 7.01339E-08-8.02479E-08
 -1       678-2.71016E-06 7.02990E-07 6.79303E-07-1.91128E-07 7.59046E-08-9.83692E-08
 -1       679-3.54950E-06 6.06526E-07 1.00472E-06-2.12928E-07-3.36000E-07 9.11496E-08
 -1       680-1.91755E-06-2.66676E-07 6.07357E-07-1.15732E-06-1.22308E-07-1.47824E-09
 -1       681 3.62481E-07-1.01237E-07-2.28657E-07-3.89902E-08-7.11067E-09 2.18016E-07
 -1       682-2.01108E-08-6.31479E-08 1.09538E-07 8.17551E-08 1.00819E-07 7.22758E-08
 -1       683-3.15028E-09-1.59420E-08 2.51836E-08 8.26940E-09 4.78633E-09 1.51125E-08
 -1       684 1.13743E-08-6.99056E-09-4.41039E-09-7.83930E-11 1.02054E-09 2.01200E-09
 -1       685-7.13231E-09-4.99776E-08-6.09612E-09 7.05384E-09 7.32227E-09-8.22975E-09
 -1       686-3.99932E-08-1.91155E-07 5.93065E-08-2.30732E-08 2.19409E-08-2.54651E-08
 -1       687-2.40200E-07-6.36020E-07 3.78113E-07-3.95734E-07-3.18651E-07-2.87066E-07
 -1       688-8.16604E-08-7.35263E-07 4.55796E-07-7.87947E-07 2.74520E-07 4.06790E-07
 -1       689 4.12017E-08-1.22899E-07 9.28544E-09-4.94594E-08-7.40351E-09-3.21903E-08
 -1       690 1.63355E-08-2.58908E-08 9.20447E-10-3.89891E-09-1.84221E-11 5.15193E-09
 -1       691-7.13826E-09-7.91722E-09 1.84209E-08 2.79262E-09-1.99725E-09-4.29798E-09
 -1       692-8.87813E-08-4.35698E-08 1.05183E-07 4.84298E-08-4.60838E-08-4.52765E-10
 -1       693 2.20000E-07-1.73764E-07-7.86280E-08-2.02235E-07-5.12632E-08-2.63443E-07
 -1       694 2.49536E-06-4.83865E-07 2.81211E-12 1.82893E-07 6.77074E-08 1.41527E-07
 -1       695-2.75318E-07-4.70135E-07 1.16513E-06 6.12753E-07 6.76933E-08-1.23012E-07
 -1       696 4.31138E-06-1.21451E-06-1.22737E-06 4.60737E-07 1.31722E-07-2.69072E-07
 -1       697 5.62198E-06-1.70095E-06-1.61227E-06-1.31311E-07-6.99963E-08 2.50595E-08
 -1       698 4.61186E-06-1.33746E-06-1.40564E-06-3.68927E-07 1.25033E-08 8.39413E-08
 -1       699 2.94762E-06-8.24337E-07-8.88050E-07-3.19387E-07 5.20868E-08 4.64610E-08
 -1       700 1.43551E-06-4.81266E-07-4.21493E-07-7.04179E-08 3.35926E-08 5.99703E-08
 -1       701 6.16468E-07-3.06913E-07-1.28957E-07-1.16455E-07 4.43585E-08 1.20865E-07
 -1       702-7.75257E-07 2.95745E-07 2.40398E-07-2.35702E-07 4.54184E-08 1.39903E-07
 -1       703-2.58228E-06 7.77604E-07 7.86818E-07-2.08228E-07 7.34012E-08 1.50059E-07
 -1       704-3.72081E-06 1.16586E-06 1.12955E-06 3.24877E-08-1.89604E-08 4.24014E-09
 -1       705-1.80586E-06 8.23525E-08 8.04387E-07 1.16872E-06-3.26155E-09-5.50677E-07
 -1       706 4.14359E-06-1.40930E-06-9.66977E-07 5.59322E-07 2.44125E-07 4.59917E-07
 -1       707 5.46653E-06-1.68472E-06-1.57599E-06 8.67210E-08-2.81989E-08-7.93582E-08
 -1       708 4.40218E-06-1.34094E-06-1.27709E-06-3.93794E-07-1.26873E-08-1.91368E-07
 -1       709 2.37841E-06-8.21470E-07-6.37824E-07-3.58504E-07 5.54561E-08-1.70305E-07
 -1       710 1.17512E-06-3.76029E-07-3.44100E-07-7.65126E-08 4.67974E-08 1.37803E-10
 -1       711 4.51076E-07-1.51367E-07-4.12735E-08-1.69694E-07-6.15726E-09-3.50828E-09
 -1       712-1.11384E-06 3.76409E-07 4.22600E-07-4.35491E-07-3.34418E-08-1.65591E-07
 -1       713-2.92806E-06 8.94207E-07 9.41768E-07-3.91384E-07-6.50540E-09-2.06308E-07
 -1       714-3.93317E-06 9.47677E-07 1.05595E-06 5.52302E-07 5.99356E-08 3.23350E-07
 -1       715-1.03794E-06 1.42355E-07 5.90441E-07 1.01967E-06-1.35341E-07 8.01998E-07
 -1       716 4.41251E-07-5.57260E-08-2.98286E-07 2.06809E-07-8.60164E-08-1.93058E-07
 -1       717 1.30298E-06-3.34286E-07-4.42704E-07 1.95367E-07 4.18148E-08-1.95444E-07
 -1       718 2.21117E-06-5.13971E-07-7.52378E-07 2.47933E-07 1.28637E-07-9.54466E-08
 -1       719 3.13562E-06-5.25350E-07-1.13424E-06 2.47012E-07-8.00197E-08-1.69560E-07
 -1       720 4.06307E-06-6.90627E-07-1.54717E-06 3.23478E-07-1.12284E-07-2.18752E-07
 -1       721 4.82578E-06-4.43122E-07-1.83862E-06 5.34168E-07-2.78227E-07-5.20373E-07
 -1       722 6.38695E-06-1.32630E-06-1.68916E-06 1.28503E-06-9.04176E-07-5.97427E-07
 -1       723 3.50015E-06-1.32620E-06-7.85552E-07-3.91019E-06-1.78745E-07 3.31488E-06
 -1       724-5.13260E-06 2.50110E-06 7.06648E-07-1.75023E-06-4.32458E-07 1.62641E-06
 -1       725-4.24596E-06 1.06615E-06 1.17591E-06 5.03325E-07 2.21934E-07-2.66382E-07
 -1       726-3.34393E-06 2.09167E-07 1.77783E-06 3.54109E-07 6.34641E-08-1.78461E-07
 -1       727-2.40811E-06 4.78973E-07 9.55134E-07 1.56340E-07-1.39350E-08-4.10040E-08
 -1       728-1.36279E-06 2.49347E-07 6.15115E-07 2.37950E-07-2.81892E-08-1.16790E-07
 -1       729-3.25387E-07-1.11719E-07-1.85880E-08 4.25243E-07 7.80005E-08-2.98037E-07
 -1       730 7.77460E-07-4.06495E-07-1.12266E-07 4.85105E-07-1.99278E-08-2.17788E-08
 -1       731-3.71593E-08-1.80473E-06 7.53863E-07 1.09683E-06 5.41121E-07-3.13407E-08
 -1       732 9.72665E-07-2.89130E-06 7.89143E-07-4.45589E-07-2.27718E-07-1.29838E-07
 -1       733 1.95617E-08-2.02634E-07 1.39192E-07-5.18494E-07-2.18101E-07 1.32482E-09
 -1       734-4.01461E-07 1.04006E-06-2.29416E-07-1.36250E-07-9.23709E-08 1.41232E-08
 -1       735-4.93399E-07 1.37342E-06-3.52436E-07-6.64163E-08-4.71277E-08 2.18743E-09
 -1       736-4.92157E-07 1.55864E-06-4.50290E-07 3.23637E-08 1.40509E-08-4.63260E-10
 -1       737-3.62139E-07 1.26787E-06-3.70229E-07 9.78495E-08 1.36722E-07 2.54463E-09
 -1       738-1.63065E-07 5.05996E-07-1.98534E-07 2.12779E-07 2.32889E-07 7.72216E-08
 -1       739 7.20227E-07 1.00508E-12-1.26885E-07 3.45716E-07-4.30260E-08 1.60416E-07
 -1       740 4.27156E-07-2.16943E-13-1.54118E-07-1.07650E-07 2.10598E-09 1.08968E-07
 -1       741 2.36446E-08 4.50898E-14-2.40793E-08 2.38650E-08 6.65244E-11 3.99419E-08
 -1       742 3.91244E-08 8.53212E-15-1.41986E-08 5.67655E-09-7.76113E-11 1.86943E-08
 -1       743 3.63606E-08 5.14001E-14-1.61488E-08-1.42645E-08 3.34738E-09-1.35345E-09
 -1       744 1.47672E-08 2.09008E-13-4.25133E-09-7.73467E-08 1.95096E-08-2.14198E-08
 -1       745-4.19223E-07 5.80818E-13 1.23502E-07-3.56123E-07 4.01216E-08-5.40897E-08
 -1       746 6.25168E-07-1.52535E-12-1.46389E-07 3.06450E-07 2.62821E-08-1.56661E-07
 -1       747 5.01956E-07-5.33395E-09-2.82370E-07 3.71432E-07-5.75174E-08 2.40816E-07
 -1       748 1.54290E-06-3.32996E-07-5.12320E-07 3.19764E-07 9.19610E-08 1.03747E-07
 -1       749 2.39500E-06-4.11492E-07-1.04001E-06 1.96483E-07-9.98953E-09 1.11739E-07
 -1       750 3.38068E-06-7.02743E-07-1.40060E-06 2.72238E-07 1.27200E-09 1.48880E-07
 -1       751 4.42755E-06-8.48037E-07-1.95751E-06 3.62232E-07-1.90626E-08 2.24476E-07
 -1       752 4.95950E-06-9.11067E-07-2.26298E-06 5.49958E-07-2.86513E-08 1.71837E-07
 -1       753 6.57915E-06-2.15005E-06-1.17475E-06-2.12033E-08 1.02801E-06-7.47223E-07
 -1       754 8.90378E-07-2.38880E-07-6.50700E-07-4.02957E-06-3.98183E-08-4.10889E-06
 -1       755-6.17668E-06 2.27646E-06 7.96345E-07-3.50263E-07-6.93067E-07-5.95924E-07
 -1       756-3.92683E-06 8.74254E-07 1.53396E-06 6.91418E-07-1.01291E-07 3.25422E-07
 -1       757-3.07561E-06 5.23175E-07 1.30297E-06 2.64812E-07-7.39984E-08 1.81436E-07
 -1       758-2.25529E-06 4.20667E-07 9.68409E-07 2.60179E-07-1.22663E-07 1.28693E-07
 -1       759-1.35479E-06 2.79532E-07 5.79502E-07 3.27001E-07-3.10638E-07 1.23322E-07
 -1       760-4.08933E-07-5.01919E-08 2.69787E-07 3.11384E-07-3.61012E-08 1.70105E-07
 -1       761 6.64275E-07-3.80158E-07 4.32014E-08 6.95025E-07 1.15917E-07 3.22236E-07
 -1       762 1.68870E-07-1.68519E-06 6.65181E-07 6.97466E-07-9.42740E-07 2.75465E-07
 -1       763 1.11169E-06-3.32409E-06 9.56626E-07-3.56167E-07 4.66949E-08-1.61440E-07
 -1       764 2.24557E-07-1.07077E-06 5.86617E-07-7.11319E-07 9.13447E-08-8.78789E-08
 -1       765-3.01228E-07 7.31028E-07-1.05220E-07-2.37812E-07 6.09526E-08 4.45587E-08
 -1       766-3.99366E-07 1.26233E-06-3.40980E-07-5.44556E-09-2.86202E-08-3.34392E-08
 -1       767-4.98582E-07 1.55413E-06-4.21164E-07-2.73359E-08 3.02246E-08-1.19392E-08
 -1       768-4.54044E-07 1.36316E-06-3.63874E-07 1.46703E-07-4.73873E-08 7.37997E-09
 -1       769-2.12871E-08 4.15266E-07-1.64473E-07 2.94172E-07-1.91704E-07-2.91965E-08
 -1       770 8.18250E-07 1.43277E-12-2.95578E-07 1.43021E-07 6.65667E-08-2.64903E-07
 -1       771 3.68718E-07-1.57944E-13-1.50954E-07-8.86270E-08-4.73060E-09-5.32011E-08
 -1       772 1.20650E-08 2.20010E-14-2.87024E-08 1.87773E-08-1.15442E-09-3.51138E-08
 -1       773 3.30502E-08 2.16227E-14-6.10500E-09 2.45850E-09-1.73601E-09-8.11462E-09
 -1       774 1.86516E-08 1.70805E-14-4.80867E-09-6.16403E-09-3.61944E-09-3.38425E-09
 -1       775 7.93060E-09 1.49181E-13 9.96159E-09-5.23467E-08-1.94201E-08 2.17858E-08
 -1       776-6.11682E-07 3.94951E-13 2.15741E-07-3.15387E-07-2.02137E-07-8.14938E-09
 -1       777 6.64806E-07 3.70056E-13-1.71017E-07 2.31291E-07-1.86345E-08 6.67767E-08
 -1       778 6.89151E-07-1.71598E-07 7.15123E-13 1.11831E-07-1.00028E-07-2.30659E-08
 -1       779 9.14869E-08 3.87595E-08-4.25890E-07 5.48252E-08-1.47918E-07 1.39008E-08
 -1       780-5.48841E-07 1.77740E-07 3.57984E-07 1.31258E-07-2.01673E-08 4.06620E-08
 -1       781 2.31949E-06-7.57911E-07-8.76970E-07 2.31743E-07-1.53538E-07 4.70531E-08
 -1       782-1.03343E-06 4.06917E-07 4.43512E-07 3.37161E-08-3.49960E-08 3.37201E-09
 -1       783-1.97149E-06 6.80611E-07 9.04934E-07 8.09686E-08 4.10893E-09-1.06189E-08
 -1       784-2.28023E-06 5.21552E-07 1.15557E-06 2.55781E-08 9.75307E-09 2.45561E-08
 -1       785-2.60715E-06 8.61582E-07 1.33491E-06 7.51745E-08 1.15158E-09-2.04201E-08
 -1       786-2.81681E-06 6.43977E-07 1.54009E-06 3.88377E-08 4.99391E-09 4.21157E-08
 -1       787-3.04043E-06 9.81663E-07 1.80421E-06 9.63797E-08 1.01430E-08-1.24831E-07
 -1       788-3.29554E-06 7.03434E-07 2.19940E-06 1.54390E-09 1.47886E-07 1.93267E-07
 -1       789-2.61944E-05 2.32968E-05-4.60541E-06-8.65103E-06 4.35099E-06 1.63787E-05
 -1       790-3.58672E-07-1.09087E-06-1.01839E-05-1.34878E-06 8.68191E-09-5.49511E-06
 -1       791 6.64960E-06-2.14072E-06-2.59123E-06-2.98685E-07-7.68894E-08-1.24611E-07
 -1       792 5.30002E-06-4.84806E-07-2.67403E-06 2.31256E-09 1.53193E-08-1.02640E-07
 -1       793 5.07832E-06-1.60273E-06-2.30563E-06 1.41654E-07-1.08097E-07-1.39902E-07
 -1       794 4.86299E-06-7.34789E-07-2.11544E-06-1.00537E-08 5.06301E-08-9.43735E-09
 -1       795 3.03759E-06-1.13930E-06-1.09018E-06 3.24174E-07-1.20468E-07 1.42558E-07
 -1       796-3.76736E-06 7.43988E-07 2.33557E-06-6.48011E-07-4.59329E-08 3.94746E-07
 -1       797 4.28499E-05-2.66213E-05 1.32811E-05 1.84542E-06 2.71150E-06-1.23642E-05
 -1       798 7.14434E-06-7.64674E-06 1.06602E-05-5.92639E-06 1.83651E-06 6.63679E-06
 -1       799-9.52906E-06 1.12203E-05-8.79022E-06 1.06923E-05 2.25313E-06 1.02937E-06
 -1       800-3.40072E-05 2.31171E-05-4.03003E-06-1.43844E-05-3.51851E-06-1.41986E-05
 -1       801 5.33104E-06 8.17534E-07-7.09348E-06 1.04648E-06-6.72860E-07 1.29124E-06
 -1       802 5.89546E-06-2.35329E-06-3.33771E-06-2.01480E-07 2.58034E-07 4.79252E-07
 -1       803 4.71124E-06 5.48974E-06-7.34324E-06-4.61361E-06 1.46947E-06-3.02169E-06
 -1       804-1.59328E-06 3.26307E-07 7.84111E-07-2.55290E-09 2.44955E-08 4.25670E-09
 -1       805-7.39827E-06 5.46635E-06 2.84069E-06 4.46856E-07 2.60514E-07-1.57279E-06
 -1       806 1.64714E-06-4.62785E-06 7.41436E-06-2.23013E-06-1.65494E-06-4.41865E-06
 -1       807 3.87297E-05-3.18194E-05 1.07308E-05 2.00967E-06-2.20342E-06 9.41502E-06
 -1       808 4.60870E-06-5.43594E-07-2.11479E-06-7.10294E-08 1.67842E-08-6.00089E-08
 -1       809 3.28953E-06-6.61391E-07-1.39570E-06-4.18279E-08-1.25143E-07-1.57464E-08
 -1       810 2.85857E-06 1.56457E-05 3.57879E-06 9.33229E-06 1.30771E-06 1.48431E-06
 -1       811 4.34855E-06-1.18418E-06-1.91866E-06 5.50837E-08-3.82910E-09-3.29954E-09
 -1       812 3.69584E-06-8.66778E-07-1.57281E-06 2.74571E-08 7.92520E-08 2.05902E-08
 -1       813-1.18747E-06 3.82005E-07 5.85300E-07 8.91987E-08-4.72991E-08-3.63223E-08
 -1       814-2.82349E-06-1.54267E-05 1.02069E-05 7.32098E-07 1.36874E-06 4.81513E-06
 -1       815 4.00507E-06-1.00001E-06-1.73624E-06 4.59735E-08 2.06615E-08-1.89204E-08
 -1       816-3.85596E-07-1.67620E-07-3.69870E-07 2.60113E-07-1.00309E-07 4.42752E-08
 -1       817 7.87623E-07-3.57766E-07 3.97964E-07 2.37516E-07 2.37776E-09-2.40699E-07
 -1       818 6.99279E-07-6.19092E-07 2.76110E-07 3.39620E-07 5.84988E-08 7.77941E-08
 -1       819 2.14513E-08-2.67407E-07 1.11009E-07-7.60333E-08-3.11170E-08-1.91086E-08
 -1       820-3.16951E-07-5.30315E-08-6.40949E-08 1.89028E-07-1.19477E-08-2.67431E-08
 -1       821-3.13368E-10-8.68379E-08 3.80509E-08 4.08433E-08 5.54024E-09 1.61383E-08
 -1       822-6.44927E-08-1.04729E-07 2.28724E-08 3.02038E-08-5.19251E-08 2.24471E-08
 -1       823 1.93674E-07-5.52855E-08-3.38355E-09-7.06695E-09 1.53833E-09-1.02075E-08
 -1       824 1.17845E-08-4.55800E-08 9.62330E-09-7.57708E-09 7.73042E-09 2.02379E-09
 -1       825-3.57917E-09-1.67513E-08 4.93193E-09 3.84009E-09-1.70468E-09 3.75628E-09
 -1       826-8.42261E-09-1.41960E-08-2.66532E-09 1.07631E-08-4.81928E-10 9.32514E-10
 -1       827 3.69326E-08-3.63050E-09-1.09140E-08-8.24276E-10 3.81785E-09-2.21018E-09
 -1       828-4.52786E-08-4.20733E-09-7.12569E-09-1.13392E-09 1.79867E-09 4.50676E-09
 -1       829 2.88953E-08-5.99305E-09-9.67663E-09-5.95269E-09 2.55741E-09-2.45035E-09
 -1       830 2.09856E-08-8.64641E-09-8.18618E-09-9.06466E-09 1.17937E-09-1.07145E-08
 -1       831-7.77885E-08-1.06158E-08-2.70733E-09 1.68680E-09-1.08842E-09-8.30871E-09
 -1       832-1.76653E-06 9.22929E-07 5.29397E-07 3.66269E-07 2.51023E-08-1.07813E-07
 -1       833 2.72922E-06-1.56890E-06-1.05739E-06 6.55418E-07-2.63214E-08 1.41216E-07
 -1       834 3.70560E-06-1.67863E-06-1.07931E-06 5.38219E-07-1.21526E-08 6.27780E-08
 -1       835-2.60516E-06 1.18142E-06 7.16044E-07 4.42557E-07-9.15525E-09 8.24630E-09
 -1       836-2.13724E-06 6.09719E-07 6.69953E-07-8.24327E-09-3.73244E-08 4.22688E-08
 -1       837-1.64062E-06 5.19778E-07 5.77831E-07-1.89790E-08-7.23531E-09 3.36975E-08
 -1       838 2.37717E-06-9.51033E-08-8.15583E-07-2.68957E-08-1.24349E-07 2.51121E-08
 -1       839 3.22121E-06-6.72561E-07-1.06701E-06-9.26855E-08 6.57158E-08 6.92323E-08
 -1       840-1.08662E-06 2.85133E-07 3.25187E-07-6.55804E-08-2.42769E-08 3.48450E-08
 -1       841 1.91138E-06-1.14346E-06-6.34871E-07-1.26747E-07 1.03467E-07 1.76350E-09
 -1       842-3.09068E-07 4.03348E-07 1.14455E-07 4.86870E-08 5.64475E-08 6.81868E-08
 -1       843 1.19120E-06 7.80035E-07-4.53074E-07 1.91781E-08-8.41867E-08-3.31281E-08
 -1       844 8.29333E-08-6.11195E-08-2.37131E-08-7.42586E-08-3.67096E-08-6.46373E-09
 -1       845 8.85697E-07-1.41455E-06-2.90473E-07-1.66547E-07 4.44652E-08-5.72502E-08
 -1       846 4.71537E-07-7.76619E-07-1.19924E-07-2.07990E-08 1.14198E-07-2.64680E-08
 -1       847 6.38574E-07 4.88502E-07-2.13464E-07 5.15778E-08-5.00040E-09-1.96506E-08
 -1       848-4.60861E-07 1.92400E-06-1.17491E-06 5.48106E-07-5.15015E-08-1.01728E-07
 -1       849 1.06613E-07-5.00063E-07 2.36542E-07 6.04599E-08 3.42137E-08-9.96085E-09
 -1       850 3.30293E-07-8.10850E-07 2.02824E-07 4.11667E-08-2.68420E-08 3.57063E-08
 -1       851-1.58910E-06 2.73556E-06-8.52590E-07 3.35076E-07-5.79812E-08 5.63213E-08
 -1       852-4.13480E-07 1.77511E-06-6.28492E-07-2.28158E-08-4.50740E-08-1.46930E-09
 -1       853-2.07046E-07 7.31371E-07-4.38496E-07 6.12036E-08-5.72506E-08 4.10467E-08
 -1       854 3.56290E-09 1.66792E-07-1.40657E-07-6.74284E-08 2.97556E-08-2.40578E-09
 -1       855 2.96945E-07-9.85394E-07 2.86632E-07 3.37671E-08-1.30132E-08-4.25254E-11
 -1       856 2.79721E-07-9.15394E-07 2.62970E-07-5.44514E-09 3.41423E-08-5.26657E-09
 -1       857 3.93105E-07-3.34776E-07 3.82326E-08 9.53195E-08 4.48215E-09 5.03724E-08
 -1       858-2.23061E-08-9.03358E-07 2.69051E-07-3.07347E-08 1.58079E-08-1.46427E-08
 -1       859 6.39476E-07-8.04894E-07 2.04835E-07 2.76200E-08 1.18088E-08-8.05320E-09
 -1       860-2.30114E-07-6.06145E-07 1.61514E-07-7.65222E-08 2.12090E-08-1.29311E-08
 -1       861 4.16494E-06-1.38533E-06-9.34911E-07 3.03083E-08-1.37978E-07-4.66751E-08
 -1       862-1.19184E-06 3.33404E-07 2.01845E-07 1.17045E-07-1.55616E-07-5.70746E-08
 -1       863 4.46997E-06-1.45057E-06-1.26791E-06 7.83284E-08 3.49957E-08 2.51528E-08
 -1       864 4.53264E-06-1.37998E-06-1.22964E-06 6.70731E-08 4.93501E-08 3.99901E-08
 -1       865 3.89670E-06-9.73310E-07-1.13455E-06 4.01433E-08 8.95627E-08 9.02214E-09
 -1       866 4.41839E-06-1.42035E-06-1.24744E-06-6.62843E-08-4.29537E-08-2.98920E-08
 -1       867-2.53801E-06 9.76306E-07 4.85611E-07 2.77811E-07-1.46355E-08-2.72049E-07
 -1       868-2.62906E-06 9.96170E-07 5.72460E-07-1.39531E-07-7.49588E-09 3.38687E-09
 -1       869-2.36739E-06 9.81831E-07 1.90792E-07 3.65975E-07 9.17798E-08 3.34290E-08
 -1       870 3.05767E-06-1.02657E-06-8.99725E-07 5.54348E-09-5.79542E-08-4.13401E-08
 -1       871-2.14590E-06 6.96892E-07 4.74105E-07 1.46556E-09 1.00194E-08-2.52008E-08
 -1       872 2.43918E-06-5.73642E-07-7.11553E-07 2.89679E-08 5.07681E-08-2.93246E-09
 -1       873-1.44351E-06 6.64273E-07 2.98505E-07 1.94563E-08-4.50371E-08-4.64430E-08
 -1       874 1.64416E-06-5.82170E-07-4.49679E-07 2.85254E-08-1.52919E-07-2.27879E-08
 -1       875-7.45075E-07 2.12363E-07 1.42082E-07-6.18520E-08 1.21008E-08 3.36306E-08
 -1       876 1.25153E-07 3.51786E-08-8.00097E-08 3.44738E-09-1.07874E-07 7.62402E-09
 -1       877 1.19250E-06-6.05263E-07-3.31093E-07-9.16059E-09 1.09575E-07-7.29829E-09
 -1       878 5.46180E-07-2.43088E-07-1.79325E-07 1.71768E-08 1.90499E-08 3.77242E-08
 -1       879 9.13724E-07-1.59095E-07-2.83818E-07 3.13970E-08-4.98041E-08 4.33841E-08
 -1       880 3.04777E-07-3.78205E-07 3.37644E-08 6.20160E-07-1.19928E-08 1.97485E-08
 -1       881-2.08216E-09-3.67499E-08-3.05062E-08 5.53486E-07-7.94904E-08 4.94680E-08
 -1       882 2.61499E-07-2.57195E-07-3.47304E-08 3.71351E-07-1.42146E-08 3.14141E-08
 -1       883 1.57935E-07-2.24821E-07-1.27920E-08 3.59550E-07-5.47262E-08-4.96841E-08
 -1       884 6.05910E-07-1.02526E-06 1.53495E-07 3.51867E-07 2.09183E-07 1.09520E-07
 -1       885 2.27937E-07-5.94903E-07 1.91433E-07 3.62551E-07-1.22288E-07 1.94941E-08
 -1       886 3.65752E-07-1.30020E-06 5.03848E-07 3.69431E-07 3.06693E-07 2.83767E-07
 -1       887 2.71977E-07-1.03124E-06 6.31741E-07 3.87563E-07 1.09459E-07 3.96121E-08
 -1       888 1.47082E-06 3.12183E-07-7.06398E-07 2.69918E-07-1.50903E-07-6.69258E-08
 -1       889 1.09618E-06 1.37312E-07-9.92555E-07 2.23059E-07-6.19126E-07-1.60667E-07
 -1       890 1.43306E-06 2.12173E-07-7.60703E-07 2.96967E-07-3.49412E-08-8.00393E-09
 -1       891 1.13547E-06 5.22375E-07-4.98748E-07 3.59773E-07 1.18956E-07 2.08709E-08
 -1       892 1.65750E-06-5.96446E-08-7.72248E-07 3.61660E-07-1.60236E-07 2.70887E-08
 -1       893 1.24937E-06 1.08233E-07-6.58154E-07 3.19403E-07 9.71677E-09 4.49210E-08
 -1       894 1.66669E-06-4.68798E-07-7.40118E-07 5.80872E-07 2.49496E-07 3.09701E-08
 -1       895 1.21622E-06-3.91994E-07-2.46044E-07 9.18429E-07-9.88202E-08-1.23804E-07
 -1       896 2.04832E-06-3.89575E-07-7.07714E-07-8.05489E-08-3.01300E-08-1.48848E-07
 -1       897 2.31315E-07 3.86964E-08-1.44470E-07-6.81113E-08-4.61904E-08 4.51000E-08
 -1       898 8.51713E-07-1.08457E-07-3.05261E-07-1.22258E-07 1.06495E-08-4.72074E-08
 -1       899 3.41422E-08-1.54426E-08-4.53386E-08 3.01421E-08 1.42445E-08-1.67840E-08
 -1       900 5.42751E-08 1.79727E-08-1.09518E-07 1.11283E-08 9.80604E-09-6.75555E-08
 -1       901 2.90049E-08-1.18263E-07 9.34118E-08-1.58933E-07 4.09491E-08 9.67327E-08
 -1       902 8.41530E-08-7.49986E-08 2.12611E-08-5.42209E-08 6.81972E-09 2.05652E-08
 -1       903-8.45901E-07 6.04787E-08 1.69963E-07-4.33336E-07-2.95162E-07-2.26491E-07
 -1       904-2.96091E-07-1.91209E-07 2.03131E-07-4.54623E-07-1.13709E-07-1.67608E-07
 -1       905 8.92123E-07-1.61787E-07-4.14183E-07 4.72414E-07-6.40814E-08-2.12336E-07
 -1       906-1.39170E-06 3.92774E-07 3.95256E-07-3.82050E-08 1.18639E-07-7.22359E-08
 -1       907 2.10328E-06-9.86846E-07-4.10910E-07 8.99311E-07-1.10039E-07-3.56323E-07
 -1       908 3.33989E-07 8.05009E-07-5.80959E-07 1.98129E-07-2.57659E-07 1.04168E-06
 -1       909 4.81877E-07 1.45433E-07-2.58544E-07-6.42361E-07-2.36118E-08-7.59224E-08
 -1       910 6.00764E-07 3.08507E-07-2.93566E-07 2.00783E-06-3.06013E-07-1.38941E-07
 -1       911-9.55696E-07 1.53423E-06-2.77271E-07 1.88688E-06 1.34585E-07-6.43874E-07
 -1       912 2.14641E-06-1.05390E-06-4.74243E-07 8.66298E-07-3.00068E-07-3.33495E-09
 -1       913-4.89915E-08 1.22707E-07-3.56294E-08 5.33999E-08 4.47251E-08-1.00026E-08
 -1       914 5.22599E-08 1.04621E-07-6.53268E-08-3.92042E-08-2.07358E-08 8.80430E-09
 -1       915-1.08148E-07 7.19356E-08 1.66569E-08 3.50992E-07 4.84461E-08 1.86275E-08
 -1       916-8.28138E-08 2.09202E-07-4.54174E-08 1.80003E-07-1.47323E-08 7.70527E-09
 -1       917-3.22199E-07 3.71525E-07-1.11613E-08 6.57718E-07-6.09775E-09-1.02604E-08
 -1       918 8.49464E-07-1.79939E-07-2.35795E-07-4.13232E-07 5.68660E-07-1.41830E-07
 -1       919-4.43555E-07 7.10627E-07-1.34525E-07-9.55137E-07 3.08871E-08-5.03694E-08
 -1       920 3.72615E-07-2.68319E-07-2.38845E-08-9.00619E-07 1.44130E-07-1.64012E-07
 -1       921 1.21056E-06-7.25921E-07-1.58475E-07 1.33874E-07 4.78571E-09 4.87563E-07
 -1       922 9.15710E-07-3.76038E-07-2.25328E-07-5.19915E-07 9.71197E-09-1.08679E-07
 -1       923 1.39792E-06-6.84848E-07-3.78751E-07-4.74541E-07-1.44393E-07-9.50207E-09
 -1       924 6.05963E-07 7.71806E-08-2.80283E-07-5.85818E-07 1.47067E-08-2.19180E-08
 -1       925 1.25418E-06-7.32928E-07-2.52957E-07-5.52675E-07-6.16820E-08-6.68153E-08
 -1       926 5.76343E-07-7.62659E-07 7.35227E-08 3.78835E-07-2.95368E-08 4.81685E-08
 -1       927 4.95669E-07-5.77688E-07 3.68135E-07 8.69165E-07 3.42446E-07 2.03311E-07
 -1       928 2.31362E-06-2.06769E-05 8.54081E-06 1.51502E-07-1.25272E-06-1.24761E-06
 -1       929 3.82965E-06-2.10955E-05 5.71620E-06-1.72289E-05-3.24906E-06-4.65555E-07
 -1       930 9.98392E-07-7.53342E-06-2.01815E-06-2.60939E-05-6.23704E-06-4.29032E-06
 -1       931-1.80853E-06 2.30933E-05-7.95130E-06-6.50573E-06 4.19033E-06-2.61588E-07
 -1       932 1.56857E-06-3.31312E-06 1.54234E-06-1.14632E-05 9.26947E-07 2.56218E-07
 -1       933-1.23955E-06 2.00151E-05-4.79902E-06-3.54522E-06 3.86062E-06-1.21341E-06
 -1       934 2.74047E-06 8.21651E-06-4.85525E-06 1.16052E-06 2.88303E-07 2.24444E-06
 -1       935 1.87054E-06 1.66891E-06-1.65572E-06 1.75893E-06 1.23239E-06 7.34691E-07
 -1       936 1.65583E-06-3.43976E-08-8.66688E-07 3.43307E-07 2.21864E-08-2.10919E-08
 -1       937 2.17654E-07-2.51799E-07 1.49735E-07 2.90317E-07-4.35825E-08-1.33648E-08
 -1       938 3.37045E-07 1.98681E-08-8.01244E-08-4.35906E-07 3.92832E-08 7.73513E-08
 -1       939 1.18087E-06 3.57170E-07-6.89911E-07 2.84216E-07-4.19362E-08 2.35226E-08
 -1       940 1.15826E-07-2.34793E-07 7.04437E-08 2.57019E-07 7.05012E-08-1.25084E-08
 -1       941 4.51635E-07-4.53164E-07-2.56565E-08 3.67138E-07 1.90926E-08 1.42809E-08
 -1       942 1.69232E-06-4.52852E-06 7.84026E-07-7.19405E-06-2.53445E-07 1.82320E-07
 -1       943 4.17347E-06-7.44076E-06 2.16377E-06-4.70729E-06-5.66486E-07-6.24147E-07
 -1       944 1.54157E-06 8.51772E-08-8.27679E-07 2.04455E-07-7.68972E-09-2.49863E-08
 -1       945 1.15337E-06 3.90334E-07-6.81549E-07 2.07746E-07-8.18679E-08 2.65630E-10
 -1       946 5.92035E-07-9.33430E-08-2.72899E-07-7.13814E-07 3.17010E-07 7.30250E-08
 -1       947-8.32087E-07-9.59120E-06 2.72881E-06 1.88324E-06-4.72355E-06 1.12902E-07
 -1       948 1.73105E-06-6.00475E-06-2.28174E-08-3.09366E-06 1.24066E-07-4.38141E-07
 -1       949 1.89233E-06-4.44671E-06 1.90375E-06-3.71536E-07-2.01015E-07 5.04399E-07
 -1       950-2.56174E-06-3.98699E-07 1.19445E-06 1.17893E-06 9.68481E-07 1.03342E-06
 -1       951-3.45742E-07 5.19353E-06 1.24629E-06-7.60604E-06 2.70002E-06 3.11138E-07
 -1       952-1.05116E-06 5.38626E-06-1.60774E-06-2.14677E-06 4.85027E-07-8.54808E-07
 -1       953-1.37003E-06 3.89105E-06-1.15846E-08-4.63203E-06 7.54763E-07 6.57546E-07
 -1       954 1.96134E-06-2.79850E-06 9.66929E-08 6.07757E-07 5.24497E-07-4.68958E-07
 -1       955-4.17135E-07 8.65422E-07-7.01735E-07-8.95551E-06-6.88831E-07 1.29457E-06
 -1       956 2.56377E-08-2.49545E-08 1.52131E-08-3.42878E-08 1.08598E-08 4.20625E-09
 -1       957 2.76027E-08-9.04065E-09-7.45146E-09-1.13603E-08 2.54066E-09 1.40808E-10
 -1       958 3.81342E-07 3.41664E-08-9.59165E-08-3.78465E-07-2.26303E-07-3.20423E-08
 -1       959 7.30619E-07-3.79919E-07-1.81370E-07-4.32369E-07 6.87985E-07 1.76685E-07
 -1       960-2.12087E-07 4.64593E-07-1.25308E-07-4.00702E-07 4.63841E-08-6.40937E-09
 -1       961 1.45613E-07 5.64611E-10-5.79477E-08-2.81855E-07 5.99126E-08-4.08013E-08
 -1       962 7.03784E-07-5.07133E-08-1.57801E-07-2.76261E-07-4.75294E-07 6.96241E-08
 -1       963-8.27969E-08 1.80427E-07-3.97333E-08-5.58633E-08 1.89703E-08 1.30735E-08
 -1       964 4.32064E-08-2.31909E-09-2.13755E-08 8.87469E-10-8.50915E-10 1.86995E-09
 -1       965 4.46582E-08-4.13738E-09-2.99960E-08 5.75114E-09-1.20992E-09 1.64197E-09
 -1       966 5.59166E-07-4.85625E-08-2.28197E-07-1.28988E-07-4.71397E-07-2.26307E-07
 -1       967 8.13602E-07-4.34763E-07-1.33311E-07 1.67421E-09 5.04479E-07 6.82629E-08
 -1       968 8.70561E-07-4.37673E-07-2.30190E-07-1.79728E-07 7.82851E-07 1.80791E-07
 -1       969-5.99923E-08 2.38515E-07-9.97889E-08-7.60163E-08 6.94305E-09 2.13913E-08
 -1       970 1.03141E-07 5.72248E-08-5.28305E-08-9.52535E-08-2.84814E-08-3.18947E-08
 -1       971 6.82689E-07 1.77405E-08-3.28243E-07-7.43814E-09-5.62372E-07 1.04715E-08
 -1       972 4.06826E-08-7.16117E-09-2.31783E-08-1.29308E-09-3.89269E-09-3.76899E-09
 -1       973-1.72053E-08-1.51128E-07 5.46520E-08 6.02237E-07 3.49420E-08-7.11436E-08
 -1       974 4.57029E-07-4.50246E-07 1.06402E-08 6.17880E-07 2.00631E-08-2.48829E-08
 -1       975 4.92082E-08-1.38190E-07-4.55325E-08 3.39755E-07 7.94063E-09 2.85008E-08
 -1       976 1.94557E-07-1.88231E-07-2.67987E-08 3.84749E-07-2.51985E-08 3.95561E-08
 -1       977 2.20373E-07-5.01222E-07-5.55650E-08 3.92304E-07 2.09576E-08-8.56875E-08
 -1       978 5.54863E-07-8.15787E-07-1.09533E-07 3.60808E-07 4.03014E-08-2.87483E-08
 -1       979 3.41965E-07-8.20849E-07 3.83550E-09 2.24699E-07 3.31051E-08-8.83747E-10
 -1       980 5.58263E-07-1.26320E-06-3.11699E-07 4.77356E-07 1.36839E-07-8.93623E-08
 -1       981-8.70318E-07-1.39470E-06 9.21656E-07 2.49478E-06 2.01504E-06-1.22420E-06
 -1       982 1.96673E-06-9.09416E-06 3.34566E-06 7.48456E-07-2.01983E-07 5.43354E-07
 -1       983 2.67664E-07 4.35427E-06-2.23604E-06 1.67762E-07 4.13816E-07 5.06482E-08
 -1       984 1.74871E-06 2.01132E-07-1.45027E-06 1.64665E-06-3.28381E-07-1.33407E-07
 -1       985 1.24423E-06 3.52307E-08-5.06800E-07 4.01151E-07 8.17402E-08 3.36181E-09
 -1       986 1.56468E-06-2.65750E-08-5.84098E-07 3.01300E-07-2.61720E-08 3.57844E-08
 -1       987 1.25196E-06 2.69231E-08-4.97633E-07 3.61714E-07-2.85121E-08-2.34617E-08
 -1       988 1.57195E-06-1.96414E-07-5.25278E-07 4.21806E-07-1.35908E-07 3.42915E-07
 -1       989 1.10631E-06-1.55273E-07-4.85997E-07 7.62443E-07 1.05854E-07-3.04015E-07
 -1       990 1.82325E-06-3.09491E-07-5.88715E-07 5.85296E-07 1.18197E-07-3.17576E-07
 -1       991 2.00773E-06-5.14664E-07-6.52540E-07-4.25874E-08 2.86421E-09 4.37705E-08
 -1       992 8.08566E-08-8.13410E-08 2.14849E-08-6.21504E-08 3.03183E-10 3.02268E-08
 -1       993 2.71241E-08-9.87965E-08 4.12276E-08-1.65036E-07-2.41149E-08-8.98257E-09
 -1       994-3.31287E-07-1.14493E-07 1.96198E-07-4.31675E-07-2.67756E-08 1.67882E-08
 -1       995-1.07708E-06 8.96157E-08 3.18671E-07-4.69043E-07 2.24741E-07 1.09567E-08
 -1       996 1.03579E-06-3.20546E-07-2.75773E-08 3.96250E-07-2.76740E-09-4.94320E-07
 -1       997 1.14866E-06-7.22548E-07-2.11612E-07 1.01750E-08-1.67777E-07-6.07915E-07
 -1       998 8.95538E-07-3.59047E-07-2.40083E-07-5.11583E-07-1.37009E-07 6.64111E-08
 -1       999 1.24637E-06-4.32696E-07-3.66597E-07-4.37166E-07 3.13031E-08 3.99893E-09
 -1      1000 7.13402E-07-2.41002E-07-1.76129E-07-6.70164E-07-5.01007E-08-3.11136E-09
 -1      1001 3.64307E-07 5.25139E-08-1.91483E-07-6.40266E-07 7.30312E-08 1.99586E-07
 -1      1002 3.08902E-07 3.98314E-07-4.51780E-07 3.12195E-07 1.91415E-07-7.89676E-07
 -1      1003-7.62612E-07 1.82214E-06-4.36480E-07 1.62271E-06 1.40343E-07 3.71356E-07
 -1      1004 6.13297E-07 3.69676E-07-2.98232E-07 1.93675E-06 2.53405E-07 1.88694E-07
 -1      1005 2.19914E-06-1.39777E-06-4.25909E-07 1.31756E-06 5.97417E-07-2.56563E-07
 -1      1006 9.17587E-07-6.94955E-08-2.83127E-07-2.89959E-07-9.33608E-07 1.41038E-07
 -1      1007-1.80456E-07 6.62092E-07-2.32159E-07-1.12655E-06 1.52456E-07 1.80369E-08
 -1      1008 4.95292E-07-3.74196E-07-3.53099E-08-8.61135E-07 5.73054E-09-3.83574E-08
 -1      1009-2.01129E-08 2.44055E-07-1.59012E-07-7.24846E-07 5.59981E-09-4.24280E-07
 -1      1010-8.46678E-08 1.72821E-07-2.57430E-08 1.42171E-07 7.51458E-08-2.40009E-08
 -1      1011-1.37973E-07 6.73352E-08 1.11883E-07 3.37668E-07-1.56781E-07-2.27920E-08
 -1      1012-3.62312E-07 4.34285E-07-2.31955E-08 6.38286E-07 2.12707E-08 3.96918E-09
 -1      1013-7.17420E-08 1.40659E-07-4.29117E-09 3.29900E-08-7.36959E-08 7.43232E-09
 -1      1014 8.68190E-07-3.31263E-08-3.63112E-07-1.94155E-07 1.50243E-07-1.31666E-07
 -1      1015 1.03047E-06 1.57151E-05-3.46933E-06-4.68182E-06-9.17342E-06-1.44981E-06
 -1      1016-1.07217E-06 8.36606E-07-5.39975E-07-2.39869E-05 3.71601E-06 7.63558E-06
 -1      1017 7.88196E-07 8.42001E-06-4.21731E-06-3.76625E-06 1.67503E-06-5.10161E-07
 -1      1018 1.21726E-06 2.00936E-08-6.41581E-07 5.68780E-07-2.27013E-08 1.78745E-07
 -1      1019 1.12828E-06 4.25058E-07-8.63481E-07 3.04118E-07 8.65613E-08 5.04665E-08
 -1      1020 1.42779E-06 2.69020E-07-7.13530E-07 2.92749E-07 5.77293E-08-1.21302E-07
 -1      1021 1.89459E-07 2.33792E-08-1.26972E-07-6.16940E-08 4.30031E-08-1.41011E-07
 -1      1022 2.01496E-08 1.65836E-08-7.38879E-08 1.76797E-09-9.22070E-09 1.11791E-07
 -1      1023 4.17668E-06-1.21399E-05 2.18875E-06-1.34606E-05-3.34773E-08 1.74524E-06
 -1      1024 1.40770E-06 2.45717E-07-5.96003E-07 2.92167E-07-1.36234E-07 1.31706E-08
 -1      1025 3.93013E-08-1.81680E-08 1.65044E-08-3.22121E-08-3.18815E-08-1.06533E-08
 -1      1026-1.37785E-06 2.93166E-07 3.96223E-07 1.39738E-08-1.41803E-07-2.94351E-08
 -1      1027 8.16873E-08 9.68218E-08-3.82507E-08-6.69446E-08 5.16611E-08 1.07133E-07
 -1      1028 5.99824E-08 5.57293E-08-3.55890E-08-4.38966E-07 1.97652E-07 2.78382E-07
 -1      1029 1.25676E-06 1.69785E-06-8.85550E-07-8.11214E-06-1.20264E-07 1.81440E-07
 -1      1030 5.64993E-07-6.33348E-07-1.60281E-07 2.76372E-07 7.00955E-08-4.41115E-08
 -1      1031 2.70728E-07-1.09106E-06 3.57435E-07-6.23419E-07-3.56380E-07 4.10545E-07
 -1      1032 1.19310E-06 2.10162E-07-6.25383E-07 3.83485E-07 5.49361E-08 3.65716E-08
 -1      1033 4.44520E-07-4.34763E-07 2.51303E-08 2.64055E-07 5.57873E-08-1.02543E-08
 -1      1034 9.19341E-08-1.98303E-07-4.36812E-08 3.37981E-07 3.15251E-08-5.24728E-08
 -1      1035-1.95173E-06 6.10477E-06 2.30817E-06-8.11848E-06-5.82805E-07 2.17792E-06
 -1      1036 1.49260E-06 8.79471E-08-6.34659E-07 2.32665E-07-7.67620E-08 7.04633E-08
 -1      1037 2.77024E-09-4.21006E-09-1.54029E-08 2.21097E-08-2.87901E-08 1.67304E-09
 -1      1038 1.47526E-06-8.94994E-07-3.24329E-07 1.03773E-06 3.77517E-08 5.39917E-07
 -1      1039 1.26048E-06-4.33941E-07-3.20184E-07-3.25873E-07 3.60954E-08 1.05170E-07
 -1      1040 7.31982E-07-1.74726E-07-2.72020E-07-5.68116E-07-2.62457E-08 5.28026E-10
 -1      1041 7.97326E-07-2.23266E-07-2.25629E-07-4.16175E-07-8.14128E-08 2.10839E-08
 -1      1042-5.28358E-08 1.53950E-07 1.04991E-08-6.96191E-08 1.58494E-08-1.77604E-07
 -1      1043 1.24437E-07 3.08656E-07-2.67966E-07-7.15493E-07-3.07931E-08-7.13751E-08
 -1      1044 3.63991E-08-4.37708E-09-2.94459E-08 8.39068E-09 3.63742E-09 6.70336E-09
 -1      1045 4.06883E-08-3.40736E-09-1.22612E-08-1.17594E-09-5.19881E-09 6.32350E-09
 -1      1046 3.74842E-08-1.10177E-08-1.21575E-08-8.94554E-09 4.64402E-09-3.50377E-09
 -1      1047 8.60331E-07-4.26937E-07-2.25459E-07-2.95743E-07 4.55633E-09-1.12505E-07
 -1      1048-2.75867E-07 3.18636E-07 4.68297E-08-9.13421E-08-1.19056E-07-2.21094E-07
 -1      1049 1.47554E-07 8.86687E-08-1.16169E-07-2.54097E-09 7.34973E-08 1.42231E-07
 -1      1050 3.84847E-07 1.88766E-07-3.21479E-07-4.25715E-07 4.94325E-08-1.87508E-07
 -1      1051 9.98239E-07-3.79706E-07-2.51787E-07-9.04976E-08 5.45785E-08 1.48865E-07
 -1      1052 6.39324E-07-2.77470E-08-2.61240E-07-2.16228E-07 3.11227E-08-1.77014E-08
 -1      1053 8.24022E-07-3.39322E-07-2.27971E-07-7.59755E-08-1.79650E-08 9.86933E-09
 -1      1054 4.18809E-08 4.07949E-09-1.59109E-07-4.25187E-09-2.03809E-08-7.32577E-09
 -1      1055 8.30935E-09-5.82903E-08 3.33159E-08 2.16211E-07 1.46808E-08 8.78285E-08
 -1      1056 4.52579E-08-3.43518E-08-5.98120E-08 4.39193E-08-4.52256E-09-4.84024E-09
 -1      1057-5.59158E-09 8.99918E-09-5.34408E-08-9.99794E-09-1.83736E-09-1.37259E-10
 -1      1058-2.98983E-08 8.13947E-09-4.51749E-08-1.88693E-08 1.21226E-08-1.21024E-08
 -1      1059-1.58188E-08 7.53319E-09 1.55032E-08-1.94544E-08-1.17389E-08 1.38124E-09
 -1      1060 4.71528E-09-3.57949E-09 9.16045E-09 1.97241E-08 4.17260E-09-5.29679E-09
 -1      1061-4.57287E-08-3.87783E-08 2.46497E-08-9.19630E-08 2.78756E-09-4.09153E-08
 -1      1062 2.78854E-08-1.40723E-09 4.17438E-08-1.80035E-09 1.32115E-08 1.65387E-08
 -1      1063 1.12103E-07 1.07844E-07-1.38326E-08-8.78580E-08-2.00935E-08-5.45019E-08
 -1      1064 1.20802E-08-2.57289E-09-2.34761E-08 7.70885E-09-4.64947E-09-1.42909E-08
 -1      1065 1.18370E-09 1.27281E-09 1.44554E-09-7.75358E-09-3.00768E-09 4.56050E-09
 -1      1066-9.72846E-10-1.29803E-09-1.59430E-08 8.50535E-09-7.99277E-10 7.83904E-09
 -1      1067 3.58182E-10 1.07811E-10-9.06609E-09-2.49815E-10 1.13552E-09-5.04503E-09
 -1      1068 2.73090E-09-6.28964E-11-7.42157E-09-5.43065E-10-7.80497E-10 2.70225E-09
 -1      1069-1.94594E-09-3.28561E-10-2.13902E-09 2.70428E-09 9.63619E-10-2.27866E-09
 -1      1070 6.13070E-07-1.23762E-06 1.64951E-08-2.91286E-08 2.62218E-08 7.60050E-09
 -1      1071-1.26143E-07 3.28237E-07 8.79485E-08 6.11965E-08 5.89301E-08 8.60124E-08
 -1      1072-2.96586E-07 7.85842E-07-1.69078E-07 6.66316E-08 3.97115E-08-2.57265E-08
 -1      1073 5.57359E-07-2.19649E-06 3.81173E-07-2.21566E-08 1.81392E-07-1.00361E-07
 -1      1074 7.33465E-07-2.55485E-06 3.21545E-07 2.11846E-08 1.09855E-07 7.57241E-08
 -1      1075-3.12541E-09-5.50236E-07 1.04795E-07 6.04279E-08 7.12736E-09-1.00726E-07
 -1      1076 3.58631E-07-1.38489E-06 3.52999E-07-1.14285E-07 2.47887E-08 1.56786E-07
 -1      1077-2.94506E-07 1.01659E-06-2.82778E-07-3.23815E-08-1.82942E-08 9.34368E-09
 -1      1078-3.93944E-07 1.23094E-06-3.38367E-07 2.60017E-08 1.98281E-08 1.33177E-08
 -1      1079-2.39607E-07 4.37005E-07-1.42775E-07-1.56062E-09-1.41637E-08 8.58555E-08
 -1      1080-3.90188E-07 1.25858E-06-3.72397E-07 1.71886E-08 7.75701E-09 1.06199E-08
 -1      1081-4.05580E-07 1.22429E-06-3.71575E-07-3.18792E-09 4.16679E-08 6.32548E-09
 -1      1082-2.34758E-07 7.91294E-07-2.88086E-07 2.21123E-08-3.65019E-08-4.23439E-08
 -1      1083-2.83723E-07 1.06959E-06-3.63027E-07-2.47427E-09-1.80477E-08-6.80808E-09
 -1      1084-3.09581E-07 9.91528E-07-3.24883E-07 1.35019E-08-4.43311E-08 2.67683E-08
 -1      1085 3.79162E-07-1.55052E-07 1.41886E-08 4.69701E-08-2.16815E-08-3.71636E-08
 -1      1086 8.17667E-07-2.08945E-07-4.19927E-07-1.00856E-07-2.32625E-08 3.01673E-08
 -1      1087 8.64399E-07-4.33970E-07-1.17332E-07 8.05009E-08 2.08908E-08-3.87356E-08
 -1      1088 1.50764E-06-5.28673E-07-2.57181E-07 6.16296E-08 2.92717E-08 1.09473E-08
 -1      1089 1.10982E-06-4.34758E-07-1.66591E-07-4.76110E-08 1.71535E-08 5.20447E-09
 -1      1090 3.78845E-06-1.33320E-06-3.69217E-07-3.86772E-08 1.74813E-07-5.54897E-09
 -1      1091 3.40152E-06-1.19706E-06-3.75930E-07 1.92827E-08 1.73365E-07 6.80655E-09
 -1      1092 4.27003E-06-1.85429E-06 2.79852E-07-2.80495E-08 3.58412E-07-2.05940E-07
 -1      1093 4.06803E-06-1.18390E-06-3.61927E-07-9.55370E-08 1.58010E-07 4.68126E-08
 -1      1094 3.85358E-06-2.31358E-06 1.32840E-06 1.05905E-07 2.94140E-07 2.92439E-07
 -1      1095 3.62003E-06-2.14259E-06 1.21292E-06 1.29542E-07 1.64417E-07 1.04941E-07
 -1      1096-1.46574E-06 1.16430E-06-8.10460E-07-2.23528E-09-4.48011E-07-4.16428E-07
 -1      1097 1.37438E-06 1.10951E-06 1.03869E-07 8.05434E-07 1.39535E-06 4.71452E-07
 -1      1098-2.99338E-06 1.41786E-06-4.40797E-07 4.67240E-08 3.54532E-07 1.67983E-07
 -1      1099-2.72872E-06 1.79926E-06-1.23008E-06 1.38338E-07 3.45769E-07-5.72645E-07
 -1      1100-2.58819E-06 8.89364E-07 6.59165E-08-4.15988E-08 2.55362E-08 4.74871E-08
 -1      1101-3.09217E-06 1.34532E-06 6.98346E-08-1.02449E-07-1.24697E-07 1.56939E-08
 -1      1102-1.93037E-06 8.88441E-07-1.59236E-07-1.42765E-08 1.17250E-07 3.00041E-08
 -1      1103-2.21511E-06 1.11748E-06-1.03608E-07-3.41891E-08 6.50270E-08 2.47635E-08
 -1      1104-3.34685E-07 2.46729E-07-3.50202E-07-2.18374E-08 1.09639E-07-3.26919E-08
 -1      1105-6.87378E-07 6.71221E-07-3.38251E-07-2.00918E-08 1.37898E-08-4.04238E-09
 -1      1106 4.27136E-07 6.39348E-08-5.08299E-07-3.20406E-08 2.27896E-08-2.30762E-08
 -1      1107 1.00438E-07 4.56773E-07-4.36810E-07 1.66444E-08-2.20044E-07-4.80744E-08
 -1      1108-1.20808E-06 5.81628E-07-2.02461E-07-3.02948E-08 9.15912E-08 3.46741E-08
 -1      1109 3.11069E-06-1.05224E-06-4.12003E-07-8.91862E-09 1.13296E-07-1.11609E-08
 -1      1110-1.52022E-06 9.46756E-07-1.70217E-07-2.65880E-08 4.58432E-09 4.99551E-08
 -1      1111 1.89645E-06-6.48105E-07-3.53396E-07 2.73915E-11 1.08938E-08 5.08312E-08
 -1      1112 2.20111E-06-6.67269E-07-3.08892E-07-1.55730E-08 1.24303E-07-3.66512E-08
 -1      1113 2.61151E-06-9.69511E-07-4.14911E-07 4.26337E-08 9.36579E-08 3.98697E-09
 -1      1114 6.54665E-07-2.13181E-06-2.00669E-06 1.19659E-05-7.40986E-07-5.98605E-06
 -1      1115-6.45289E-08-2.49007E-06 1.93383E-06 4.12509E-06-2.57240E-06-1.27184E-06
 -1      1116-1.01257E-06 2.99941E-06 9.09225E-07 1.05385E-05 1.57758E-06 5.60137E-06
 -1      1117 1.02065E-07 3.43948E-06-7.79350E-06 9.73240E-06-2.43509E-06 6.00108E-06
 -1      1118-3.22255E-11 3.30103E-06 3.15908E-06 1.88024E-05 4.84793E-06 3.70348E-06
 -1      1119 1.88709E-04-5.49929E-04 6.19307E-05 2.84960E-05 4.77460E-05-2.67796E-06
 -1      1120 1.84052E-04-5.17007E-04 9.45598E-05 4.90555E-07 2.01113E-05 6.85276E-07
 -1      1121 1.98524E-04-5.40670E-04 8.99759E-05-1.22729E-06 3.33353E-05-8.24905E-06
 -1      1122 1.47723E-04-4.53825E-04 9.37230E-05-2.49241E-06-8.60833E-06 3.94299E-06
 -1      1123 1.52647E-04-4.70529E-04 1.05021E-04-2.54486E-06-4.81458E-06 1.53351E-06
 -1      1124 1.70076E-04-4.69228E-04 1.01927E-04-2.95080E-06-3.27839E-07-5.64538E-06
 -1      1125 8.79599E-05-2.98195E-04 8.87232E-05 8.28839E-06-6.24746E-06 1.76526E-06
 -1      1126 1.14985E-04-3.58203E-04 8.99995E-05 2.67751E-07-6.51232E-06 8.17748E-07
 -1      1127 7.03365E-05-2.35775E-04 7.71797E-05-1.47970E-08-2.02078E-07-1.79595E-06
 -1      1128 4.35785E-05-1.25240E-04 5.34717E-05-3.95042E-06 6.55397E-06-6.57585E-07
 -1      1129 2.77552E-05-1.19979E-04 5.71402E-05-1.51826E-06 8.24781E-06 1.21278E-06
 -1      1130 9.71794E-06-4.89273E-05 1.11284E-05-1.68192E-07-3.40148E-05-3.24872E-06
 -1      1131 1.99762E-04-5.45721E-04 6.32746E-05 1.60541E-05-4.98508E-05-1.28503E-05
 -1      1132 1.87344E-04-5.34968E-04 9.44442E-05 1.74388E-06-3.30540E-05 9.63269E-08
 -1      1133 1.76363E-04-5.01368E-04 9.94368E-05 1.52412E-05-1.30353E-05 1.41089E-06
 -1      1134 1.60040E-04-4.63313E-04 1.02001E-04-7.17139E-06 1.06251E-06-3.54734E-06
 -1      1135 1.42115E-04-4.49609E-04 9.44305E-05 2.74451E-06-5.48014E-06 9.45477E-07
 -1      1136 1.18731E-05-3.73290E-05 1.17929E-05-4.83748E-06 3.47331E-05 3.29073E-06
 -1      1137 1.99903E-04-5.45334E-04 5.12424E-05 7.94332E-06-1.21292E-05-7.87456E-06
 -1      1138 4.23528E-06-4.14427E-05 2.54682E-05-2.56474E-06 8.98516E-06-4.75625E-06
 -1      1139 9.06390E-06-4.61050E-05 1.55482E-05-4.38416E-06-1.28233E-05 3.21925E-06
 -1      1140 1.89981E-04-5.44074E-04 2.66245E-05 1.20807E-05 1.14008E-05 1.32075E-05
 -1      1141 1.42724E-05-5.70507E-05 2.83758E-05-8.69055E-06-2.06727E-05-8.74557E-06
 -1      1142 4.43067E-07-4.70832E-05 3.88648E-05 5.80222E-06 2.25678E-05 1.93654E-06
 -1      1143 5.31945E-05-1.82539E-04 5.87562E-05 9.68791E-06 1.11125E-05-4.44488E-07
 -1      1144 2.36349E-05-8.65148E-05 4.54776E-05 4.57145E-06-1.40788E-06 3.54992E-07
 -1      1145 4.63759E-06-8.20114E-05 4.82790E-05 8.23156E-06 1.32301E-05 8.91662E-07
 -1      1146 1.15268E-04-3.79098E-04 9.24304E-05 7.43997E-06-6.23757E-06 4.46294E-07
 -1      1147-1.82098E-04 5.46305E-04-6.40697E-05 2.34706E-05 4.55209E-05 2.57823E-06
 -1      1148-1.75476E-04 5.08839E-04-9.76055E-05 8.20027E-07 1.56955E-05 7.04086E-07
 -1      1149-1.95522E-04 5.36588E-04-9.21197E-05-2.65466E-06 3.55058E-05 8.25168E-06
 -1      1150-1.46372E-04 4.49334E-04-9.63763E-05-5.95437E-06 2.35828E-06-1.63293E-06
 -1      1151-1.53245E-04 4.65237E-04-1.05026E-04 3.61929E-06-1.86151E-06-1.76357E-06
 -1      1152-1.58856E-04 4.68365E-04-1.02040E-04 3.92082E-06 2.00332E-06-1.35697E-06
 -1      1153-9.25992E-05 3.08446E-04-8.89689E-05 9.01413E-06 6.84269E-06 1.41981E-06
 -1      1154-1.15717E-04 3.60089E-04-9.13242E-05-2.66660E-06 5.76234E-06-1.00627E-06
 -1      1155-4.67296E-05 1.70682E-04-5.89953E-05 1.03627E-05-1.04264E-05-2.91144E-07
 -1      1156-6.92765E-05 2.36616E-04-7.68200E-05-1.60494E-07-4.19043E-08-1.73602E-06
 -1      1157-2.53930E-05 1.19470E-04-5.68140E-05 7.31361E-07-8.08146E-06 7.90957E-07
 -1      1158-2.73786E-05 7.20825E-05-3.39347E-05-3.37463E-06-1.82315E-05 1.19621E-05
 -1      1159-2.43572E-05 1.03713E-04-4.78834E-05 7.21721E-06-1.10155E-05 1.75639E-07
 -1      1160 1.77366E-05 3.30438E-05-2.70556E-05-6.19118E-06-2.83536E-05-5.02846E-06
 -1      1161-2.03888E-04 5.49894E-04-5.71659E-05 2.19899E-05-4.66466E-05 1.65649E-05
 -1      1162-1.81495E-04 5.34287E-04-9.29926E-05 5.59843E-06-2.90018E-05-9.82544E-07
 -1      1163-1.66415E-04 5.01681E-04-1.01276E-04 1.05767E-05-1.03910E-05-7.00966E-06
 -1      1164-1.60213E-04 4.68066E-04-9.80480E-05-8.03409E-06 8.10563E-06 2.36583E-06
 -1      1165-1.47340E-04 4.53896E-04-9.25065E-05 2.96214E-06 7.73551E-06-1.95044E-06
 -1      1166-3.29707E-05 1.08969E-04-4.34130E-05-4.94924E-06 3.53678E-06-1.55863E-06
 -1      1167-1.80332E-05 7.71021E-05-2.63872E-05 5.25856E-06 1.86391E-05-5.14349E-06
 -1      1168-1.69194E-05 4.82075E-05-9.68943E-06-5.20801E-06 3.32533E-05-1.83924E-06
 -1      1169-2.00062E-04 5.44543E-04-3.80670E-05 9.95382E-06-1.04104E-05 3.13583E-06
 -1      1170-1.81104E-04 5.45643E-04-5.56281E-05 1.45772E-05 1.63304E-05-3.07016E-05
 -1      1171-2.89235E-05 4.15376E-05-3.41439E-05 1.35346E-06-2.06850E-05 3.89120E-06
 -1      1172-1.09940E-05 5.14163E-05-2.39488E-05 7.93029E-06 2.00386E-05 7.15545E-06
 -1      1173-2.02525E-05 1.13767E-04-5.43067E-05 2.35551E-07-6.74687E-06 6.40457E-07
 -1      1174-1.18715E-05 4.37516E-05-2.58226E-05-2.46173E-06-1.68577E-07-9.97780E-06
 -1      1175-1.14097E-04 3.78170E-04-9.22056E-05 9.05982E-06 6.09567E-06-4.87779E-07
 -1      1176-1.17034E-05 7.72642E-05-5.91554E-05-8.96381E-06-9.23421E-07 1.41435E-06
 -1      1177-3.26631E-05 1.06678E-04-5.45721E-05-3.48625E-06-8.11033E-06 3.52137E-06
 -1      1178 6.77182E-06-6.61046E-06 4.69492E-07 2.11016E-05 4.23173E-06-8.74876E-06
 -1      1179-7.99683E-08 5.32370E-06-3.46030E-06 9.98430E-06 1.23025E-06 4.49542E-06
 -1      1180 1.89050E-05-2.47566E-05 3.34725E-05-4.66143E-05 5.66361E-07-5.42565E-05
 -1      1181 2.27566E-06-1.33776E-05 1.03304E-06 1.07273E-05-2.71332E-06-1.06166E-06
 -1      1182-8.67943E-06 7.81912E-06 1.83295E-06-8.85540E-06 4.25334E-07-1.86383E-05
 -1      1183-7.98223E-07 1.00001E-05 1.34651E-06 2.31735E-05-5.43253E-06-6.89903E-06
 -1      1184 9.41542E-05-2.68035E-04 4.40460E-05-3.47612E-06-1.73041E-05-1.86220E-05
 -1      1185-1.00383E-04 2.74010E-04-5.11604E-05-2.90321E-07 1.74794E-05-1.00173E-05
 -1      1186-2.13060E-05 5.69939E-05-2.68717E-05-7.98614E-06-5.25513E-06 4.75811E-06
 -1      1187 7.87469E-06-5.97522E-05 2.74415E-05-3.80646E-06 3.96818E-06 9.55534E-06
 -1      1188-5.32905E-06 3.72863E-06 2.02465E-06 7.72691E-06 6.20413E-07-6.24390E-06
 -1      1189 1.01861E-05-3.03232E-06-3.65420E-06-7.36129E-06-5.63479E-06-2.02278E-05
 -1      1190 7.94531E-05-2.31702E-04 5.54829E-05 1.64800E-05-6.84148E-08-1.69880E-05
 -1      1191-7.82820E-05 2.31669E-04-5.16635E-05 1.07784E-05-1.93770E-07-1.30136E-05
 -1      1192-3.78576E-06 9.14465E-06 1.83318E-08 2.25188E-05-8.25788E-07-6.60904E-07
 -1      1193 5.50492E-06-8.95900E-06 4.16385E-06 6.77523E-06 1.70867E-06-1.05627E-05
 -1      1194 6.26023E-05-1.79933E-04 4.61121E-05-6.38769E-06-2.78326E-06-5.93675E-06
 -1      1195-6.50512E-05 1.80782E-04-4.62114E-05-7.66854E-06 3.88468E-07-7.40257E-06
 -1      1196-1.02902E-05 2.01762E-06-9.50793E-07-2.04748E-06-5.46169E-07 7.31940E-06
 -1      1197 1.71119E-06-9.94622E-07-9.04752E-07 1.75878E-05 9.61678E-07-1.50818E-07
 -1      1198-8.52183E-05 2.65544E-04-5.27668E-05-6.94060E-06 7.74893E-06-2.47601E-05
 -1      1199-3.37512E-05 1.21454E-04-2.97225E-05 1.60991E-05-7.28553E-06-2.37899E-06
 -1      1200 3.28774E-05-1.23211E-04 3.00298E-05 1.36422E-05 7.12527E-06-3.67336E-06
 -1      1201 8.72746E-07-8.30583E-07-6.46001E-07 9.06142E-06 1.09729E-06 5.38226E-07
 -1      1202 6.80471E-06-2.46798E-06 1.38668E-06 3.03686E-06 5.12233E-07-2.22427E-06
 -1      1203-2.90356E-06 3.91625E-06-2.38224E-08 3.70276E-06-1.08182E-06-6.41735E-06
 -1      1204-7.24599E-05 2.17363E-04-4.99636E-05 2.28404E-06 1.52790E-06-4.55802E-06
 -1      1205-2.04297E-05 6.22391E-05-2.80861E-05 3.85323E-07-5.51273E-06 5.34904E-06
 -1      1206-5.55942E-05 1.71875E-04-4.35967E-05-8.46669E-06 3.84881E-06-2.03580E-06
 -1      1207-4.42935E-05 1.30733E-04-3.01237E-05-6.85287E-06-9.04043E-06-9.00535E-06
 -1      1208-8.88676E-07 3.49625E-07 2.10007E-07 1.76532E-08-2.96354E-08 4.53566E-08
 -1      1209-1.48780E-06 6.71399E-07 2.07102E-07-4.74422E-08-3.05674E-08-2.75540E-09
 -1      1210-1.71179E-06 6.74423E-07 3.10444E-07-7.38551E-09-3.85779E-08 9.51418E-09
 -1      1211-2.22350E-06 9.05442E-07 3.86296E-07 6.77610E-09-3.28751E-09-9.77110E-09
 -1      1212-2.65983E-06 1.10187E-06 3.96658E-07-3.04819E-08-8.11252E-09 1.46872E-08
 -1      1213-3.07907E-06 1.25610E-06 4.72143E-07 1.92313E-08 1.43011E-08 2.64884E-08
 -1      1214-3.45145E-06 1.60420E-06 3.80572E-07 3.11818E-08-7.67959E-08 2.21608E-08
 -1      1215-3.69362E-06 1.57421E-06 4.21667E-07 2.33714E-08-9.35605E-09 3.87020E-08
 -1      1216-3.97287E-06 1.71583E-06 2.71766E-07 3.45164E-07 1.24488E-07-3.07685E-08
 -1      1217-3.93739E-06 2.42256E-06 9.50299E-08 2.29418E-07 7.09810E-08 3.82365E-07
 -1      1218-2.39828E-06 1.31679E-06-6.69422E-07 1.80157E-07-6.03127E-07 1.27596E-07
 -1      1219-2.85426E-05 1.03913E-05 1.90999E-06 6.02976E-06-3.07042E-06 2.95224E-06
 -1      1220-2.26036E-05 3.86932E-06 5.00929E-06 8.65722E-06 2.34350E-06-2.30847E-06
 -1      1221-2.87099E-05 4.62962E-06-7.94156E-06 6.76279E-06 2.06626E-06 1.02656E-06
 -1      1222-2.61381E-05 8.09223E-06-3.78276E-06 3.75675E-06-2.14570E-06-1.66570E-06
 -1      1223-7.00007E-06 2.62879E-06 1.77469E-07 1.34213E-06-9.65949E-08 2.33662E-06
 -1      1224-3.16460E-06 3.73182E-06-5.85054E-06 1.49631E-06 1.15539E-06-4.22739E-06
 -1      1225-1.11207E-06 1.69857E-06-9.25718E-07-1.34712E-06-4.80071E-07 4.20623E-07
 -1      1226-3.91639E-06 6.83361E-06-3.01491E-06 1.40451E-07 2.53070E-06-1.96463E-06
 -1      1227-1.03329E-05 9.39513E-06 6.04841E-08 2.07614E-05 2.67726E-06 9.54403E-06
 -1      1228 1.63686E-07-3.91989E-06-1.22984E-07 1.22405E-05-2.38426E-06-2.56042E-06
 -1      1229-3.21634E-05 1.82673E-05-3.00079E-05-4.82666E-05-4.10195E-06 4.72248E-05
 -1      1230-8.00400E-06 1.27193E-05-1.99821E-06 1.17502E-05 2.41996E-06 7.18356E-06
 -1      1231 9.01376E-06-9.01429E-06-8.55662E-08-7.33223E-06-1.18339E-06 2.03389E-05
 -1      1232 3.62740E-06-1.19855E-05-3.27216E-07 2.77058E-05-2.95501E-06 1.46846E-05
 -1      1233-9.47781E-05 2.65308E-04-4.11717E-05-3.30205E-06-1.77344E-05 1.60573E-05
 -1      1234 1.01831E-04-2.77141E-04 5.22622E-05-2.77436E-07 1.72827E-05 7.53301E-06
 -1      1235 1.13076E-05-6.06714E-05 2.60036E-05-1.29474E-05 1.53827E-06-1.19519E-05
 -1      1236-1.03387E-05 5.93589E-05-2.71133E-05-9.86602E-06-1.82054E-06-1.06378E-05
 -1      1237 4.26261E-06-1.21285E-06-3.88552E-06 6.81519E-06 1.39373E-06 6.11020E-06
 -1      1238-8.12407E-06 1.81373E-06 2.59409E-07-6.55391E-06-3.59934E-06 1.04618E-05
 -1      1239-8.11774E-05 2.36376E-04-5.42500E-05 1.36156E-05 4.44088E-06 1.74918E-05
 -1      1240 8.35332E-05-2.34436E-04 4.68179E-05 1.34570E-05-3.71397E-06 1.48436E-05
 -1      1241 1.72937E-06-5.95220E-06-1.10069E-07 2.09721E-05-2.60685E-07 2.87457E-06
 -1      1242-5.64685E-06 6.83981E-06-4.97925E-06 9.24102E-06 1.23113E-06 1.34563E-05
 -1      1243-6.14010E-05 1.79856E-04-4.60104E-05-1.25948E-06 4.26681E-06 5.26159E-06
 -1      1244 6.52592E-05-1.82116E-04 4.59312E-05-2.65505E-06-4.28927E-06 6.64599E-06
 -1      1245 9.19194E-06-3.97246E-09 1.47876E-06 2.24323E-06 1.04539E-06-2.41592E-06
 -1      1246 1.37249E-07 1.50557E-06 3.32204E-07 1.19625E-05 6.78838E-08 3.73003E-06
 -1      1247 8.59825E-05-2.66014E-04 5.29717E-05-5.27460E-06 7.90151E-06 2.44004E-05
 -1      1248 4.04362E-05-1.11231E-04 4.11888E-05 1.05657E-05-5.49866E-06-1.73987E-05
 -1      1249-3.95924E-05 1.11360E-04-4.09731E-05 7.97347E-06 4.83215E-06-1.69024E-05
 -1      1250 3.76729E-06 1.17131E-07-6.77729E-07 1.26095E-05 9.50701E-08-7.28962E-07
 -1      1251-4.33091E-06 1.15309E-07-4.88664E-07 2.65222E-06-7.12914E-08 4.13609E-06
 -1      1252-3.75467E-05 1.21497E-04-4.52909E-05 3.26598E-06 3.94285E-06-1.23955E-06
 -1      1253 4.08502E-05-1.20921E-04 4.49269E-05 1.07095E-05-4.19960E-06-1.42538E-06
 -1      1254 7.53156E-05-2.24682E-04 4.43134E-05 6.17487E-06-2.73347E-06 1.33475E-05
 -1      1255 2.93322E-06-6.41497E-05 2.87396E-05-7.81581E-06 2.52217E-06-2.95760E-06
 -1      1256 5.60455E-05-1.77115E-04 4.54336E-05-7.26842E-06-3.13838E-06 2.44854E-06
 -1      1257 2.74449E-05-9.52386E-06-2.37831E-06 9.17453E-06 4.31270E-06 2.27205E-06
 -1      1258 4.47211E-06 1.17071E-05-8.78571E-07-5.96849E-06-1.34708E-07-6.14895E-07
 -1      1259 4.48251E-06-4.61740E-06-8.71168E-07 7.27462E-07-8.80061E-07-1.01779E-06
 -1      1260 6.28925E-06-2.58145E-06-1.04791E-06 1.09149E-07 8.88140E-08-8.24809E-08
 -1      1261 6.09800E-06-2.92202E-06-9.96243E-07 1.34518E-07-7.74226E-08-1.99807E-07
 -1      1262 4.45419E-06-1.57414E-06-8.25926E-07-2.57038E-08 1.14574E-07-1.97142E-08
 -1      1263 3.96967E-06-1.25585E-06-7.68876E-07-1.17426E-10-4.41354E-08 5.49455E-08
 -1      1264 3.53906E-06-1.26389E-06-5.81456E-07 7.23068E-08-1.13757E-07 3.76388E-08
 -1      1265 3.15974E-06-1.28672E-06-6.14237E-07-1.64585E-08-7.99102E-08 1.09581E-07
 -1      1266 5.22901E-06-1.89056E-06-1.02835E-06-4.35412E-08-4.45623E-08-2.06615E-08
 -1      1267 5.47914E-06-1.99365E-06-9.54274E-07-1.13693E-08-7.23656E-08-1.68260E-08
 -1      1268 5.89636E-06-2.55091E-06-9.39398E-07-6.95852E-08 1.29098E-07-3.88576E-09
 -1      1269 4.07518E-06-8.21437E-07 5.42237E-07-4.45939E-07 1.42124E-06-5.31986E-07
 -1      1270 7.55635E-06-5.67444E-06 9.04592E-07-5.86690E-07 2.44589E-06 1.64129E-06
 -1      1271 5.24649E-06-1.60154E-06-9.16821E-07-8.90909E-07 1.77181E-06 1.69933E-06
 -1      1272 2.96563E-05-9.23630E-06-8.84504E-06-4.76439E-07-1.67532E-06-2.79975E-06
 -1      1273 2.05375E-05-1.13819E-06 1.75750E-06 3.17146E-06-1.49500E-06 4.25675E-06
 -1      1274 2.02393E-05 3.24966E-08 4.66275E-07 3.74006E-06-2.57675E-07-4.88882E-07
 -1      1275 4.80316E-06-1.31793E-06-9.25923E-07 2.91082E-08-9.19744E-08-4.90010E-09
 -1      1276 6.90167E-06-5.67044E-06-1.01391E-06-2.64187E-07 6.03316E-07 1.35528E-07
 -1      1277-1.17949E-06 3.36067E-06-8.35837E-07 8.38463E-08-1.84571E-08 1.73984E-07
 -1      1278-8.09215E-07 2.82903E-06-5.77587E-07-1.17469E-07-3.89322E-08-5.78945E-08
 -1      1279-9.37982E-07 1.64712E-06-3.34229E-07-1.70437E-07-2.51481E-08 1.19687E-07
 -1      1280 3.95180E-07-1.26503E-06 3.32696E-07-7.60805E-09 3.56295E-10-1.89496E-08
 -1      1281 4.05476E-07-1.16082E-06 2.62357E-07-3.70837E-08-2.15438E-08-1.05569E-08
 -1      1282 2.38444E-07-8.66530E-07 2.09109E-07 2.28761E-08 1.34384E-08-4.87204E-09
 -1      1283 7.39896E-07 3.63955E-07-9.87606E-08 4.06923E-07-7.20105E-08-3.14345E-08
 -1      1284 2.05793E-07-1.23525E-06 3.73346E-07-7.74164E-09-1.77578E-08 1.82274E-08
 -1      1285-3.42108E-07-2.27027E-07 1.35728E-07 5.21524E-08-7.76742E-09 1.00929E-07
 -1      1286 5.28311E-07-1.11758E-06 3.66225E-07-1.26610E-08 2.06516E-08-5.43238E-08
 -1      1287 3.80728E-08-9.09131E-07 2.95533E-07 5.55137E-08 1.73972E-08 3.33529E-08
 -1      1288 5.61954E-07-6.81821E-07 2.41323E-07 4.55729E-08 2.56530E-08-4.73302E-08
 -1      1289-3.38525E-06 1.11157E-06 7.59090E-07-5.24564E-08 1.19866E-07-1.16254E-07
 -1      1290-3.27492E-06 9.80229E-07 8.47423E-07-8.16585E-08-2.38182E-08 1.92558E-08
 -1      1291-2.68088E-06 7.69181E-07 7.61527E-07-1.28555E-08 5.28137E-08 3.01102E-08
 -1      1292-1.95750E-06 7.68726E-08 5.50742E-07 6.03325E-10-9.30485E-09 4.54439E-08
 -1      1293 3.48855E-06-5.89604E-07-9.24986E-07 5.24918E-08 2.74773E-08 1.03320E-07
 -1      1294 4.22907E-06-1.39058E-06-1.03290E-06 9.81112E-08-1.63476E-08 5.85469E-08
 -1      1295 4.21188E-06-1.17978E-06-1.02295E-06 3.68715E-08 9.21313E-08 1.42470E-07
 -1      1296-1.13780E-06 8.53309E-07 2.71230E-07-8.93641E-08 1.14278E-07 7.57656E-08
 -1      1297-2.04620E-07-8.69552E-07 8.87461E-08 1.40912E-07-8.73457E-08 1.79915E-09
 -1      1298 2.52218E-06-1.11330E-06-6.53556E-07 1.56675E-07-4.91068E-08 1.31289E-08
 -1      1299 1.73006E-06 4.52100E-07-4.95713E-07 6.51792E-08 9.79329E-08 1.14788E-08
 -1      1300 1.05255E-06-7.46424E-07-3.12656E-07 5.94044E-08-7.32205E-08-7.78199E-08
 -1      1301 1.76374E-07 5.30003E-07-4.27421E-08-6.84383E-08 1.10251E-07-1.55948E-08
 -1      1302 5.10534E-07-6.45946E-07-1.05011E-07 5.67992E-08-9.86768E-08-6.74412E-08
 -1      1303 7.21241E-07 4.64835E-07-1.69815E-07 5.09972E-09 1.11737E-07-5.08264E-08
 -1      1304 2.32743E-07-2.60862E-07-1.33514E-07-5.33115E-08-1.37433E-08-3.22038E-08
 -1      1305-1.59892E-07-1.60482E-07 1.28094E-07 1.59312E-08-3.06989E-08 1.13838E-08
 -1      1306 6.78558E-08-1.08405E-07 1.11167E-07-9.72538E-09-1.46111E-08-1.54267E-08
 -1      1307-3.05527E-08-1.06774E-07 4.42934E-08-3.36422E-08-2.33336E-10 1.31462E-08
 -1      1308 1.77376E-07-2.91442E-07 1.52481E-07 8.29158E-08 1.70725E-08 9.79023E-10
 -1      1309 2.80835E-07-8.38747E-07 4.22032E-07-1.58673E-08 1.45357E-08 8.84594E-08
 -1      1310 1.32922E-07-6.66698E-08 6.32836E-09 2.41261E-08 8.79028E-09 3.93070E-09
 -1      1311-5.11553E-08-3.13703E-08 3.56800E-08-3.33730E-09 4.05998E-09-8.97157E-09
 -1      1312 1.83979E-08-3.27129E-08 4.13061E-09-1.94947E-08-1.63961E-09 1.21883E-08
 -1      1313-3.29266E-09-6.11319E-09 1.52811E-08 1.58313E-09 3.91770E-09-4.63646E-09
 -1      1314-3.36232E-09-5.20337E-09 6.63515E-09-2.51996E-09 2.19576E-09-1.41032E-09
 -1      1315 1.10806E-08-1.06940E-08 2.71043E-09 6.66411E-09 1.09655E-09-5.37738E-09
 -1      1316 4.19205E-06-1.45190E-06-1.07471E-06-2.15373E-07-1.42611E-07-1.39972E-07
 -1      1317-1.03489E-06 4.16077E-07 8.03732E-07-7.01146E-08 3.96189E-08-3.32417E-08
 -1      1318 5.29679E-06-1.64250E-06-1.62925E-06-8.55376E-08-1.45421E-08 5.87967E-08
 -1      1319 5.56826E-06-1.71959E-06-1.59166E-06 7.82038E-08-4.49877E-09 4.05257E-09
 -1      1320 5.25383E-06-1.50473E-06-1.60146E-06 3.85112E-08-1.19029E-08-4.19272E-08
 -1      1321 4.58887E-06-1.35316E-06-1.39879E-06-2.86880E-08 1.36189E-08 9.51582E-09
 -1      1322-1.86248E-06 4.91507E-07 6.47583E-07 8.70993E-09-2.48485E-08-3.09169E-08
 -1      1323-2.83592E-06 7.18107E-07 9.26514E-07 9.51327E-08 3.44537E-08-4.06865E-08
 -1      1324-3.43798E-06 1.02784E-06 1.07811E-06 2.61831E-08-3.35772E-09-2.06576E-08
 -1      1325-3.58812E-06 9.81448E-07 1.05608E-06-3.10676E-07 4.52274E-08-1.88179E-07
 -1      1326-2.99458E-06 1.09929E-06 7.59103E-07-5.00968E-08 6.14849E-08 2.33486E-08
 -1      1327 3.54543E-06-9.73143E-07-1.08162E-06 1.13394E-07-1.40736E-07-8.39829E-08
 -1      1328 2.66374E-06-6.46952E-07-8.14344E-07 6.80322E-09 1.18085E-07 3.22063E-08
 -1      1329-1.03996E-06 2.27295E-07 3.94152E-07 1.38486E-07 9.69258E-08 2.67645E-08
 -1      1330-2.78047E-08-5.61836E-08 9.71568E-08-1.62825E-08-3.18662E-08 1.50012E-08
 -1      1331 1.76978E-06-5.87821E-07-4.86966E-07 5.20749E-08-4.98019E-08-4.27914E-08
 -1      1332 1.25868E-06-3.06055E-07-3.95717E-07-1.05020E-08 5.82873E-08 4.09113E-08
 -1      1333 9.05572E-07-2.34949E-07-2.45471E-07 3.09998E-08-7.86937E-08 3.96153E-08
 -1      1334 5.18174E-07-1.58217E-07-1.34612E-07 5.51297E-08 6.08087E-08 6.92581E-08
 -1      1335 1.52070E-07 2.36297E-07-1.88999E-07 5.01756E-07 8.02043E-08-7.77887E-08
 -1      1336 2.41676E-07-1.36265E-07-1.24047E-07 5.92715E-07 2.47784E-08 6.54531E-08
 -1      1337 2.89217E-07-8.76616E-08-8.57761E-08 3.27006E-07-4.49242E-08 4.73751E-08
 -1      1338 2.01235E-07 5.30238E-07-2.51026E-07 3.24025E-07 5.59226E-09 5.80946E-08
 -1      1339 6.09823E-07 4.06254E-07-4.59861E-07 3.10903E-07 1.40196E-07 1.21692E-07
 -1      1340 1.98003E-07 8.01569E-07-6.86151E-07 3.53012E-07 1.73289E-08 5.87144E-08
 -1      1341 9.76378E-08 1.08168E-06-4.54624E-07 2.69756E-07-7.29794E-08 1.41549E-08
 -1      1342-4.96789E-07 2.68386E-06-1.52337E-06 9.81329E-07 2.85985E-08 5.98520E-07
 -1      1343-8.56372E-07 9.06110E-07 1.72218E-07 8.06173E-07-1.30189E-08 6.57820E-07
 -1      1344 1.34796E-06-1.26958E-06 1.17829E-06 6.56427E-07-4.54573E-07 1.27077E-07
 -1      1345 1.54397E-06-1.67025E-06 3.86361E-07 3.14771E-07-5.35769E-07 2.31833E-07
 -1      1346 1.22261E-06-1.09938E-06 3.56263E-07 2.68243E-07 1.95294E-07 5.03920E-08
 -1      1347 1.45451E-06-1.16072E-06-1.56808E-07 2.58820E-07 1.24959E-07-1.66071E-08
 -1      1348 1.17536E-06-7.67308E-07 5.28504E-08 2.82682E-07-1.54719E-07-4.84547E-08
 -1      1349 1.65437E-06-9.98176E-07-1.49260E-07 3.19187E-07 1.12862E-07-1.05823E-07
 -1      1350 1.23865E-06-7.89420E-07-1.43808E-08 3.64797E-07-5.80522E-08-2.07997E-08
 -1      1351 1.52757E-06-8.28718E-07-2.05592E-07 4.37527E-07-9.88471E-08 1.35477E-08
 -1      1352 1.37386E-06-4.36919E-07-3.74013E-07 4.65351E-07 6.87221E-08-3.52429E-07
 -1      1353 1.18314E-08-1.14683E-07 1.01956E-07 1.85887E-06-2.07681E-07-1.43388E-07
 -1      1354 1.57383E-06-1.09847E-06-1.09904E-07 8.16248E-07-1.79271E-07-8.15413E-08
 -1      1355 3.49245E-08 9.86811E-08-5.32362E-08-4.37785E-08-4.03308E-09 7.64588E-09
 -1      1356-2.74927E-08 1.17527E-07-3.45255E-08 5.02169E-08 1.66193E-08-2.06935E-08
 -1      1357-3.49549E-08 2.13738E-07-8.91700E-08 1.64291E-07-4.09400E-08 1.91281E-08
 -1      1358-1.51825E-08 2.52783E-08-1.79350E-08 3.23593E-07 2.62286E-10-3.71824E-08
 -1      1359 1.34467E-07 9.43033E-08-3.44682E-08 3.51822E-07-1.00547E-09 1.61936E-08
 -1      1360 3.42501E-07-2.70017E-07-8.65862E-08-2.96573E-07 1.23485E-07 1.24698E-07
 -1      1361 5.45593E-07-4.77563E-08-2.65454E-07-1.09852E-07 8.63390E-08-1.11108E-07
 -1      1362 2.23507E-08 3.74829E-08-2.51221E-08-4.86585E-08-1.13764E-08 4.32293E-08
 -1      1363-2.50178E-08 3.39599E-09-8.08677E-09 3.47744E-08-5.45047E-09-5.48388E-09
 -1      1364 1.18520E-08-1.52355E-08 4.16764E-09 1.71939E-08 2.74814E-09-1.11325E-09
 -1      1365 6.35195E-08-5.19611E-08-8.92645E-10-2.24964E-08-2.82626E-09 7.39915E-09
 -1      1366 9.85103E-08-8.11967E-08-9.23194E-09-7.91825E-08 1.48299E-08-1.70747E-09
 -1      1367-1.05602E-08-2.09056E-07 1.00415E-07-3.05474E-07-4.20849E-08-5.03866E-08
 -1      1368-6.13919E-07-9.35074E-09 3.30941E-07-4.38841E-07 1.29960E-07 1.41167E-07
 -1      1369-1.26937E-06 1.91970E-07 4.47912E-07-3.07301E-07-2.60120E-08 3.84102E-08
 -1      1370 7.61900E-07 1.13333E-07-3.75692E-07 4.53408E-07 8.57232E-10-2.15643E-07
 -1      1371 1.82663E-06-8.42468E-07-4.55236E-07 6.38135E-07 3.55769E-08 6.42644E-08
 -1      1372 1.28854E-06-4.33648E-07-3.65258E-07 1.69793E-07-1.94156E-07-6.31367E-08
 -1      1373 8.81119E-07-2.74909E-07-2.52460E-07-5.08065E-07 5.68748E-08-3.72750E-08
 -1      1374 1.38824E-06-4.80465E-07-3.50141E-07-4.61495E-07-2.87549E-07-1.75014E-07
 -1      1375 5.76796E-07 1.06753E-07-2.74095E-07-6.30030E-07 2.29096E-07-1.09680E-07
 -1      1376 6.64442E-07-3.51741E-07-1.44454E-07-4.29972E-07 2.77214E-08 7.60800E-08
 -1      1377 3.93082E-07-2.50691E-07-2.56054E-08-5.30455E-07 1.62362E-07 3.06117E-08
 -1      1378-8.56968E-07 1.08392E-06-1.92626E-07 1.57652E-06-8.36848E-08-6.70117E-08
 -1      1379-7.52172E-07 6.99218E-07 2.32368E-08-8.85100E-07-6.90487E-08 6.49700E-09
 -1      1380 5.75531E-07 1.38848E-07-3.41534E-07 3.48269E-07-2.44942E-09 6.12439E-08
 -1      1381 2.00983E-05-2.09900E-05-7.45805E-07-8.38770E-06 3.68592E-06 1.18143E-06
 -1      1382-1.24221E-06 3.03910E-06-3.41854E-06 3.16499E-07-2.87490E-06 1.65512E-07
 -1      1383-3.15422E-06-5.20772E-07-2.24473E-06-2.26640E-06-2.03300E-06-1.64280E-06
 -1      1384-1.40179E-05 2.34858E-05-8.94350E-06-5.09534E-06-2.21050E-06 2.47222E-06
 -1      1385 1.12404E-06-9.66366E-07 2.13339E-07 2.32136E-07-1.44560E-07-7.60090E-08
 -1      1386 2.20272E-08-8.12036E-09-6.18035E-09-1.50599E-08-5.50582E-10-3.52378E-09
 -1      1387 2.62338E-07-1.62519E-07 5.50594E-10-6.38918E-07 1.10624E-07 1.93864E-08
 -1      1388 1.36327E-07 6.48147E-07-2.81475E-07 7.67936E-09-2.06307E-07-2.05450E-07
 -1      1389 9.22886E-08-2.86666E-07 1.13409E-07-8.30025E-07 7.66933E-08-8.10536E-08
 -1      1390-3.94137E-07 4.90893E-07-7.98095E-08-3.49406E-07 1.39158E-07-1.32777E-08
 -1      1391-2.25813E-07 3.45883E-07 6.64094E-08 6.03931E-07-9.51784E-09 3.49641E-08
 -1      1392 3.63717E-07 4.43418E-08-1.82344E-07 2.78182E-07 8.91746E-09 8.74399E-09
 -1      1393 1.02808E-07 3.99848E-07-1.77055E-07 2.41564E-07 7.08821E-08 8.23563E-08
 -1      1394 1.53033E-06-1.14758E-06-2.58076E-09 1.62452E-07 1.45463E-07-1.09080E-07
 -1      1395 6.93102E-06-5.73949E-06-2.54065E-07-4.65416E-06 1.25302E-07-2.58909E-07
 -1      1396 3.81458E-06-2.61746E-06-4.63311E-07-1.07083E-05-1.36890E-07 1.23451E-07
 -1      1397 1.34166E-06-6.93389E-07-2.62468E-07 6.73558E-07-1.18775E-07 3.10306E-08
 -1      1398 1.53147E-06-3.79386E-07-4.63895E-07-3.67550E-07 1.95117E-08 1.29057E-07
 -1      1399 3.77359E-07 6.73521E-08-1.23613E-07 3.36804E-07 4.56576E-08-3.16591E-08
 -1      1400 2.59114E-08-2.07153E-09-1.75570E-08 2.96845E-09-2.03226E-09 1.26759E-09
 -1      1401 8.17917E-07-4.76763E-07-1.22632E-07-2.68977E-07-1.32904E-07 6.08352E-08
 -1      1402 1.31505E-06-5.46254E-07-3.42922E-07-3.60622E-07-4.46809E-07-6.25261E-08
 -1      1403 5.88635E-07 1.33744E-07-3.04851E-07-2.75053E-07 1.66117E-08 1.94157E-08
 -1      1404-2.29764E-10 1.64422E-08 2.04784E-08-2.32868E-07-1.19595E-08 6.23309E-09
 -1      1405 5.35077E-06-2.50957E-06 3.25320E-07 5.98690E-07-5.25666E-07 6.02867E-07
 -1      1406 4.04608E-06-4.31355E-06-1.86988E-06 1.64974E-06 1.37915E-06-2.92058E-07
 -1      1407 4.04752E-07-1.42459E-07-3.94560E-08-3.95725E-07 3.68537E-07 2.93599E-08
 -1      1408 3.15048E-08-8.95992E-09-1.06232E-08-2.53023E-09 1.38007E-10-1.63149E-09
 -1      1409-4.58947E-06 4.38769E-06 3.54174E-07 1.00205E-06 5.60216E-07 4.70949E-07
 -1      1410 5.87460E-07-7.20991E-07 3.70499E-09 9.82927E-08 1.50208E-07 6.56738E-07
 -1      1411-3.97974E-06 4.49032E-06-2.97414E-07-8.52519E-06 1.35498E-08 2.89151E-07
 -1      1412-4.27799E-06 5.42567E-06-7.48247E-08-2.35328E-06 8.83959E-07-1.08790E-06
 -1      1413 8.53624E-07 8.45933E-07-9.12208E-07-1.53790E-05 3.99394E-07-1.27723E-06
 -1      1414-1.25252E-07 2.39417E-07-8.04507E-08-6.94046E-08 6.75275E-08-2.95388E-08
 -1      1415 3.12758E-08 4.81418E-08-2.98158E-08-9.08178E-08-1.13964E-08-1.52244E-09
 -1      1416-1.42221E-07 1.84137E-07-2.02140E-08-5.37002E-08 2.19014E-08-7.42555E-09
 -1      1417 2.70784E-08-2.30844E-09-1.01406E-08 3.82648E-10-1.30594E-11 3.36959E-09
 -1      1418-3.87092E-05 2.44033E-05-9.36750E-06-3.81771E-05-8.34081E-07 2.75300E-06
 -1      1419 4.20970E-05-2.21962E-05-2.52764E-06-2.81348E-05-1.06461E-05 6.55207E-07
 -1      1420-9.12914E-07-3.98421E-07-7.82856E-07 1.85550E-06 3.67154E-07 2.35152E-07
 -1      1421 8.91076E-07-3.45983E-07-2.63488E-07-3.22053E-08-2.35615E-08-1.63303E-08
 -1      1422 6.34740E-07-6.92282E-08-1.86281E-07-2.23252E-08 2.12338E-07 4.20644E-08
 -1      1423 8.29224E-07-4.28625E-07-2.04303E-07 2.63725E-09-2.43994E-07-8.09730E-08
 -1      1424-6.33757E-06 7.70569E-06 1.20018E-05-1.57621E-05 5.78295E-06-4.90288E-07
 -1      1425 6.97191E-06-5.99874E-06-5.50013E-06-1.83222E-05-4.53084E-06-2.38426E-06
 -1      1426 4.70605E-07-2.08377E-07-1.76761E-07 5.24893E-07 1.84624E-08-3.77755E-08
 -1      1427 4.06988E-08-6.80639E-09-9.11459E-09 5.38583E-07 4.29671E-08-6.02193E-08
 -1      1428 2.28513E-07 1.48737E-07-2.57915E-07 3.48651E-07-1.01913E-08 5.21555E-08
 -1      1429-3.50739E-09 2.13578E-07-1.18067E-07 2.89946E-07 6.65060E-08 1.01793E-07
 -1      1430 5.76410E-07 2.12034E-07-5.82706E-07 2.57475E-07 6.74178E-08-1.25882E-07
 -1      1431 1.11241E-07 3.66791E-07-3.24299E-07 3.05043E-07 1.88372E-08 4.31522E-08
 -1      1432 5.54212E-07 4.84299E-07-7.77528E-07 2.87150E-07 2.88207E-08-7.92989E-08
 -1      1433 2.08585E-07 4.95854E-07-4.36882E-07 3.78739E-07-3.82141E-08 3.72773E-08
 -1      1434 3.11520E-07 1.03263E-06-8.19863E-07 3.91823E-07 1.26008E-07-2.22409E-07
 -1      1435 2.74280E-07 6.71611E-07-9.31047E-07 2.65202E-07-1.08233E-08-8.91945E-08
 -1      1436 1.51199E-06-1.41699E-06 3.65552E-07 3.15162E-07-7.12193E-08-1.34387E-07
 -1      1437 1.31635E-06-1.83767E-06 2.96814E-07 6.91951E-07-3.57268E-07-3.26781E-07
 -1      1438 1.56932E-06-9.37480E-07-2.59510E-07 2.85540E-07-3.08582E-08 1.00416E-07
 -1      1439 1.19574E-06-9.10959E-07-9.87923E-08 3.50271E-07-1.03111E-08-3.08999E-08
 -1      1440 1.52816E-06-8.67258E-07-1.47459E-07 3.24962E-07-1.14191E-07 6.95801E-08
 -1      1441 1.20814E-06-7.25175E-07-1.51283E-07 3.35274E-07-5.12774E-08-3.32741E-08
 -1      1442 1.64655E-06-5.33784E-07-4.89857E-07 5.09743E-07 1.35175E-08-1.22515E-07
 -1      1443 1.24152E-06-5.36093E-07-2.58848E-07 5.23343E-07 6.74635E-08-1.08907E-07
 -1      1444 1.74236E-06-9.33025E-07-3.27542E-07 7.47157E-07 9.71379E-08 2.24654E-07
 -1      1445 3.09775E-07-8.44854E-08 2.48286E-09 1.67857E-06 2.35335E-07 1.41252E-07
 -1      1446-4.59994E-07 6.41786E-07-8.71871E-08-1.14189E-06 1.49443E-07 9.38492E-09
 -1      1447 5.31519E-08-1.44739E-07-2.53451E-08-3.56894E-07 2.77464E-07-6.56364E-07
 -1      1448-2.01028E-07 1.47868E-07 1.41985E-09-6.72772E-07 4.31174E-07-2.10382E-07
 -1      1449 2.12036E-07-4.15168E-07-8.00811E-09-6.91385E-07 2.04796E-07-6.15936E-07
 -1      1450 1.05396E-08 2.34511E-08-8.03852E-09 2.29846E-07-4.94535E-08-3.49509E-09
 -1      1451-5.17623E-08 1.65171E-07-2.34434E-08 7.34105E-08 1.16460E-08-2.07038E-08
 -1      1452-2.91321E-07 3.66201E-07-4.57857E-08 4.96198E-07 6.92197E-08 1.44097E-08
 -1      1453 1.69718E-06-4.00683E-07-5.13945E-07-1.81087E-07-8.66085E-08-6.27454E-08
 -1      1454 1.71586E-08 1.62970E-08-3.83804E-08-2.75639E-08-4.36895E-09 8.78215E-09
 -1      1455 3.42699E-07 1.24353E-08-1.99047E-07-6.09323E-08-4.79134E-08 5.90952E-08
 -1      1456 6.40543E-08-8.39795E-08 2.49007E-08-1.02261E-07-1.82035E-08 4.03305E-08
 -1      1457 4.95699E-08-4.72852E-08-2.25791E-09-3.50903E-08 6.52000E-09 7.97140E-10
 -1      1458-7.17698E-07 1.73834E-07 3.16401E-07-2.74175E-07-1.15368E-07-2.40804E-07
 -1      1459-1.26808E-07-1.41303E-07 8.34121E-08-3.05991E-07 5.46970E-08-3.91330E-08
 -1      1460 1.30046E-06-1.13136E-07-3.61890E-07 5.23796E-07 1.10486E-07-1.03741E-08
 -1      1461-1.11605E-06 5.81254E-08 3.73135E-07-9.52996E-08 3.15784E-08 9.49154E-08
 -1      1462 1.58843E-06-8.45878E-07-3.84747E-07 6.48907E-07-6.27368E-08 1.80734E-08
 -1      1463 8.48164E-07-1.57300E-07-2.71502E-07-4.60384E-07 4.13311E-08-8.25166E-09
 -1      1464 1.17206E-06-4.47381E-07-3.25986E-07-1.20312E-07 1.89215E-07-5.94778E-09
 -1      1465 6.58942E-07-1.52157E-07-2.36860E-07-5.91861E-07 1.51884E-08-6.76255E-08
 -1      1466 1.24526E-06-3.25424E-07-4.51379E-07-4.43561E-07 1.27840E-07 1.06751E-07
 -1      1467 3.31548E-07-1.87250E-07-7.94780E-08 5.85561E-08-2.82751E-07 1.61831E-07
 -1      1468 3.79226E-07-3.12328E-07-1.14818E-08-5.82013E-07-8.84407E-08 5.84242E-08
 -1      1469-6.83928E-07 1.24957E-06-3.06720E-07 1.14907E-06 2.56164E-07 2.77968E-08
 -1      1470 1.42974E-06-1.08821E-06 1.06019E-08 2.51209E-07 5.82307E-08-1.11530E-08
 -1      1471 1.19081E-06-8.96820E-07-1.30506E-07 3.17593E-07 1.05347E-07-6.30968E-08
 -1      1472 1.14297E-06-1.06614E-06 1.20565E-07 2.90436E-07-5.60081E-08-8.01370E-08
 -1      1473 4.75052E-06-2.10020E-06-1.16392E-06 2.14500E-06-2.40853E-06 8.76886E-07
 -1      1474 5.09162E-06-2.62305E-06-6.80863E-07 7.61087E-07 6.13412E-08-7.61281E-07
 -1      1475 1.42195E-06-7.97361E-08-1.97170E-06-3.83885E-07 8.56083E-07-1.32648E-06
 -1      1476 3.45020E-06 1.11471E-06-2.47770E-06 4.46309E-08 1.06149E-06 7.76580E-07
 -1      1477 1.14077E-06 1.50707E-06-2.24858E-06 1.04855E-06 9.63301E-07 6.22397E-07
 -1      1478-2.86226E-05 7.62235E-06 1.17378E-06-2.53541E-06 3.33679E-06-7.86474E-06
 -1      1479-3.45666E-06 3.44588E-06-2.08061E-06-1.24993E-06 1.21556E-06 1.19841E-06
 -1      1480-3.38227E-06 5.68346E-06-8.48127E-07-4.46881E-06 1.26310E-06-2.99270E-07
 -1      1481-1.02948E-06-1.74080E-06-1.87600E-06-1.20180E-06 4.73434E-06-7.74744E-07
 -1      1482 1.41090E-05-1.46774E-05 1.24270E-06-7.10927E-06-3.56887E-06-2.74473E-06
 -1      1483-2.50571E-06 3.09518E-06-3.96434E-07 5.68568E-07-1.41652E-06 5.65936E-07
 -1      1484-2.75813E-06 3.84192E-06-3.03039E-08 4.14653E-06 1.06031E-06 1.76066E-06
 -1      1485 1.48533E-07 1.95206E-06-8.86449E-07-3.89304E-07 5.29360E-07-8.04725E-08
 -1      1486 1.49768E-06-9.92064E-07-1.31513E-07 2.19017E-07 9.18130E-08 4.14065E-08
 -1      1487 4.42467E-07 8.53730E-08-3.48163E-07 2.32944E-07 8.08296E-08-1.18360E-07
 -1      1488 1.75651E-06-1.69485E-06 7.08592E-07 1.12040E-06-6.16969E-07-3.18748E-07
 -1      1489-2.15003E-06 9.45373E-07 2.10053E-06 4.57663E-07 8.15861E-07 9.86550E-07
 -1      1490-3.06117E-06 3.00632E-06-1.49238E-07-2.00624E-06-7.55768E-07-7.48636E-07
 -1      1491-3.65431E-08 9.64041E-09 8.45051E-09 7.53383E-09 8.51315E-09-3.14258E-08
 -1      1492-4.45260E-09-6.13888E-09 6.22320E-09 1.47484E-08 1.83307E-09 5.57595E-09
 -1      1493 8.12664E-07-4.57814E-07-1.90740E-07-3.68773E-07-1.64145E-08-6.96612E-08
 -1      1494 6.75694E-07-1.63334E-07-2.14277E-07-4.98944E-07 2.80966E-08-7.55112E-08
 -1      1495 1.28599E-06-4.20379E-07-3.90174E-07-3.02446E-07 7.76813E-08 1.70399E-07
 -1      1496 1.61661E-07 3.32505E-08-1.11514E-08-6.15123E-07-8.29967E-08 8.70361E-08
 -1      1497 3.55252E-06-8.29474E-06 4.00065E-06 6.59787E-07-6.70506E-07 1.52243E-06
 -1      1498 4.11458E-06-2.13698E-06-8.07933E-07-2.92204E-07 3.07912E-07-1.88351E-07
 -1      1499 2.67109E-06 1.04365E-06-2.83510E-06 1.62230E-06-1.43975E-07 2.19928E-07
 -1      1500-5.25294E-07 2.78758E-06-1.47283E-06-1.17117E-05-1.42316E-07 5.71733E-07
 -1      1501 4.16618E-06-3.34527E-06 3.42352E-07-1.10273E-05 9.37430E-07 1.78338E-06
 -1      1502-1.10709E-08 1.46376E-07-5.08660E-08-2.20088E-08 5.17749E-08 1.79254E-07
 -1      1503 7.79990E-09 6.48002E-08-2.84218E-09-1.18267E-07-2.47126E-09-1.11844E-07
 -1      1504 1.92854E-08-8.27547E-09-1.81977E-09-1.59989E-08 1.74917E-09-2.38326E-09
 -1      1505 8.90044E-07-6.01124E-07-1.40928E-07-2.45537E-07-1.50176E-08-5.89458E-08
 -1      1506 4.05457E-07 3.46974E-08-1.76615E-07-3.78493E-07-2.60496E-08-3.15940E-09
 -1      1507 1.02269E-05-8.49897E-06-1.77090E-07-1.32542E-05-3.05833E-08 1.36722E-06
 -1      1508 9.30039E-06-1.48511E-05 5.79128E-07-2.16595E-05-1.69319E-06 2.81939E-07
 -1      1509-7.25222E-06 2.66849E-06 1.00373E-06-5.96693E-06-7.48170E-07-5.24837E-07
 -1      1510 7.09422E-06-5.88419E-06-6.11857E-07-5.09429E-06 7.52757E-07-6.11875E-07
 -1      1511-1.63480E-06-6.67841E-07 2.49764E-06 1.44265E-06 4.00355E-08 4.52529E-07
 -1      1512 2.47780E-08-5.94203E-09-1.41909E-08-3.80559E-09 1.17836E-09-3.61292E-09
 -1      1513-3.27893E-07 3.72473E-07-5.27245E-08-1.81069E-07 9.70417E-08 2.45682E-07
 -1      1514-4.36162E-08 1.98257E-07-7.85926E-08-8.98682E-09 1.34687E-07 2.67409E-07
 -1      1515-7.60229E-08 8.33837E-08 3.68470E-08-7.23939E-08-4.99218E-08-2.11893E-07
 -1      1516 3.47942E-08-4.03367E-09-1.82659E-08 9.84505E-10-3.82958E-09 9.60820E-09
 -1      1517 6.39117E-07-9.00766E-08-2.08559E-07-1.92066E-07 4.47710E-09 1.42991E-08
 -1      1518 9.97889E-07-3.89440E-07-2.85433E-07-7.53772E-08 2.55947E-09 3.97287E-09
 -1      1519 8.26394E-07-3.62029E-07-2.66087E-07-7.89692E-08 5.28111E-08-8.30741E-08
 -1      1520-5.21731E-06 8.15912E-06-1.08819E-06-1.40216E-05 1.11521E-06-7.60158E-07
 -1      1521 1.54827E-05 1.01650E-05-6.13678E-06-3.34782E-05-2.63545E-06 9.85672E-06
 -1      1522-2.69309E-08 2.77379E-14 2.95077E-13-2.89912E-08-2.11881E-14-3.09287E-08
 -1      1523 1.65803E-07 1.33726E-09 7.33816E-09 2.46983E-07 4.15746E-09 2.84715E-08
 -1      1524 8.62627E-08-7.17659E-09 1.23294E-10-1.26100E-08-1.94274E-09 2.68075E-08
 -1      1525 1.40893E-08-1.38297E-09 6.97697E-10-1.96906E-08-7.66388E-10 1.11091E-08
 -1      1526-3.58886E-08 1.10951E-10 4.36285E-12 1.12451E-08-4.99028E-11-6.33846E-09
 -1      1527 1.67756E-08 1.46416E-14-2.86649E-14-3.13134E-08-2.92492E-14-2.26815E-10
 -1      1528 7.58001E-08 2.51456E-09-5.15947E-12-7.50592E-09-4.07328E-10 2.56044E-09
 -1      1529-9.46061E-08 4.39486E-09 7.50474E-10-1.58651E-08 2.80565E-09 2.11449E-08
 -1      1530-1.32095E-07-2.81327E-09-3.96749E-09-1.08581E-07 8.13817E-09 7.69197E-09
 -1      1531 3.00688E-09 6.75699E-10-3.39839E-11 5.37801E-09-1.45035E-10 1.82319E-09
 -1      1532-5.58841E-09 4.23404E-10-3.33943E-10 7.44499E-10 3.57543E-10-3.93477E-09
 -1      1533 4.34339E-09 1.17749E-10 9.25687E-12-3.14337E-10-5.01087E-11-1.39966E-09
 -1      1534 2.79480E-09 4.94653E-11-3.04930E-10 1.31495E-09 7.53698E-12-1.41505E-09
 -1      1535 4.85102E-09 1.40048E-15 8.56137E-16-3.81125E-09-4.54925E-15-8.71637E-10
 -1      1536 5.12442E-09 1.54594E-10-7.90540E-12-2.72809E-10-9.99836E-12-1.39795E-10
 -1      1537 4.41152E-07-1.36700E-06 6.45584E-07-1.69409E-07 4.47559E-08 3.17081E-08
 -1      1538-1.03196E-07 2.81401E-07-9.04808E-08-7.99193E-08 1.72039E-08 1.34168E-08
 -1      1539-3.10678E-07 8.74551E-07-2.59915E-07 2.16732E-08 4.90465E-08 4.01762E-08
 -1      1540 1.14734E-06-3.12332E-06 8.57957E-07 3.00060E-08 9.87921E-08-5.75740E-08
 -1      1541 8.20559E-07-3.02884E-06 8.52584E-07 7.13840E-08 2.10849E-07 9.04481E-09
 -1      1542 4.80352E-07-1.99161E-06 7.19410E-07-2.67015E-08 8.37480E-08 1.03713E-07
 -1      1543 2.12665E-07-8.47720E-07 4.20903E-07 3.17919E-08-4.90364E-08-5.65181E-08
 -1      1544-4.67264E-07 1.51890E-06-4.32477E-07-2.09779E-08 3.25164E-08-1.59787E-09
 -1      1545-3.97127E-07 1.31232E-06-3.88386E-07 2.50929E-08 6.70299E-09 5.37706E-09
 -1      1546-1.55518E-07 3.94408E-07-5.29359E-09 8.85112E-08 4.08206E-08 7.48089E-08
 -1      1547-4.91345E-07 1.55990E-06-4.36270E-07-1.31969E-08 1.54735E-08-1.09506E-08
 -1      1548-3.74129E-07 1.47051E-06-4.06955E-07 2.58153E-08 5.92147E-08 6.27316E-08
 -1      1549-2.54680E-07 9.10081E-07-2.40573E-07 8.70189E-08-6.70236E-08-7.96668E-08
 -1      1550-3.69649E-07 1.29499E-06-3.75881E-07-6.61855E-09-2.69617E-08-2.77053E-08
 -1      1551-3.12090E-07 1.16973E-06-3.14651E-07 2.13394E-08-2.01647E-08 5.03862E-08
 -1      1552 3.24483E-07-6.92681E-08-2.20297E-07-8.53354E-08 8.93956E-09 7.83970E-09
 -1      1553 7.53557E-07-2.38715E-07-7.23059E-08-9.01485E-08-2.28512E-08 2.46204E-08
 -1      1554 9.38036E-07-2.13031E-07-3.65551E-07-1.80952E-09 2.75379E-08-2.70747E-09
 -1      1555 1.37852E-06-2.97955E-07-5.40099E-07-5.17803E-08-3.56724E-08-1.43612E-08
 -1      1556 1.86248E-06-4.73813E-07-7.29149E-07-2.20126E-08 1.04777E-08-1.00236E-09
 -1      1557 2.27735E-06-7.20853E-07-8.97783E-07-1.30677E-07-1.53055E-08 2.83449E-08
 -1      1558 2.70039E-06-7.36270E-07-1.04644E-06-2.68325E-08 4.38530E-08-5.55311E-08
 -1      1559 3.23850E-06-8.98977E-07-1.34772E-06-6.21603E-08-1.90356E-08 3.93547E-09
 -1      1560 3.81494E-06-1.02389E-06-1.59853E-06-6.23842E-09 2.61425E-08-2.12746E-08
 -1      1561 4.24327E-06-1.05928E-06-1.82225E-06-1.23204E-07-5.57192E-08-7.79815E-09
 -1      1562 4.68494E-06-1.12325E-06-2.19441E-06-2.90072E-08 3.95824E-08-7.65960E-08
 -1      1563 5.02818E-06-9.61071E-07-2.59149E-06-1.57407E-07-6.37631E-08-1.07113E-08
 -1      1564 5.10483E-06-1.31949E-06-2.44269E-06 3.61412E-08 3.61019E-07-2.68520E-07
 -1      1565 5.51402E-06-1.39172E-06-2.35573E-06-1.65024E-07-2.80886E-07 1.63799E-07
 -1      1566 5.30604E-06-1.54268E-07-2.27547E-06 8.64297E-07-7.87681E-07 5.83473E-07
 -1      1567 2.00596E-06-6.42734E-07-8.89763E-07 3.21873E-07 3.28994E-07-8.08276E-08
 -1      1568-2.72852E-06 1.37953E-06 6.67463E-07-2.42120E-08-5.60451E-07-4.27710E-07
 -1      1569-4.60121E-06 1.15812E-06 1.29947E-06 5.89243E-07 5.67819E-07-5.81415E-07
 -1      1570-4.49168E-06 5.37351E-07 1.80384E-06 1.52004E-07 5.53936E-07 1.64450E-07
 -1      1571-4.19376E-06 1.22936E-06 2.17996E-06 7.34770E-08 2.31100E-08 7.71252E-08
 -1      1572-3.64061E-06 4.20771E-07 2.03781E-06-9.51384E-08-1.97343E-08 1.33055E-07
 -1      1573-3.19500E-06 6.34942E-07 1.66534E-06-6.76006E-08-5.02150E-08 2.40733E-08
 -1      1574-2.80285E-06 2.93854E-07 1.42118E-06-5.08635E-08 1.39659E-07 3.09660E-08
 -1      1575-1.29921E-06 2.15656E-07 8.08626E-07-3.58557E-09 9.45060E-08-9.40995E-09
 -1      1576-8.06299E-07-4.63003E-08 6.46877E-07-7.47477E-08 9.09931E-08-4.44645E-08
 -1      1577-3.95751E-07-2.15538E-09 4.51958E-07-3.40224E-08 9.54791E-08-3.09476E-08
 -1      1578 1.85188E-07-8.21558E-08 4.77214E-08-4.73953E-08-1.18633E-07 2.34850E-10
 -1      1579-1.90112E-06 7.98093E-08 1.09758E-06-6.73596E-08 1.31863E-07 2.23200E-08
 -1      1580-2.32122E-06 4.45039E-07 1.27761E-06 4.94529E-09 1.36378E-08 3.88887E-08
 -1      1581-2.93364E-07-1.44568E-07 3.35116E-07-1.13786E-07-1.29628E-08 1.02283E-08
 -1      1582-3.19096E-07-2.69497E-07 2.32157E-07 3.97867E-07 2.24178E-07-8.67280E-08
 -1      1583-7.27926E-07 8.14490E-08 3.86008E-07 1.36064E-07 7.00320E-08 1.32425E-07
 -1      1584-7.16258E-07 9.62658E-08 2.95697E-07-6.72011E-09 3.57739E-09 5.59388E-08
 -1      1585-2.01862E-07-6.25842E-07 8.37002E-07 7.00542E-07 1.00934E-08-1.36785E-07
 -1      1586-1.16861E-06 2.24378E-07 3.91418E-07 8.57121E-07-1.19124E-07 8.08248E-07
 -1      1587-3.77072E-07-3.97559E-07 5.03305E-07 1.22656E-06 2.90854E-07 1.78121E-07
 -1      1588 2.43008E-06-6.37394E-07-7.83278E-07 2.13020E-07 1.54166E-07 6.80657E-08
 -1      1589 3.42194E-07 4.63830E-09-1.69881E-07 3.50769E-07 6.87284E-08-1.07165E-07
 -1      1590 2.28920E-07-1.33233E-07-3.58756E-08 2.26282E-07-7.31627E-08 5.62206E-08
 -1      1591-1.66281E-06 3.72653E-07 6.20824E-07 1.35259E-07-1.22674E-07-8.45646E-08
 -1      1592-1.44890E-06 3.81608E-07 4.52018E-07-6.05734E-09-9.08008E-09-1.42737E-09
 -1      1593-1.64321E-06 4.27801E-07 5.03533E-07 2.60012E-07-1.16061E-07 1.23796E-07
 -1      1594-1.87850E-06 4.71277E-07 5.90803E-07 8.69752E-09 1.91182E-08-1.27956E-08
 -1      1595 3.73951E-06-1.01916E-06-1.15394E-06 2.73322E-07-6.11846E-08-2.50349E-07
 -1      1596-1.50974E-07 7.48822E-08-3.05113E-08 3.10653E-07 8.98956E-08 1.19084E-08
 -1      1597 9.95455E-07-3.46015E-07-3.96139E-07 3.50751E-07-2.59256E-08 9.26803E-08
 -1      1598-3.10195E-06 9.97932E-07 9.13704E-07 3.01081E-07-8.87978E-08 1.74130E-07
 -1      1599 3.47371E-07-1.04638E-07-1.08764E-07 3.09188E-07-5.01397E-08 1.36958E-07
 -1      1600-1.12296E-06 3.35058E-07 1.94411E-07 2.67632E-07-5.07303E-08 2.02306E-07
 -1      1601 1.52581E-06-5.22348E-07-3.38516E-07 2.42219E-07 7.65183E-08-1.64535E-07
 -1      1602 1.37100E-08-3.01816E-08-1.64119E-08 3.60851E-07 4.53614E-08-1.26507E-07
 -1      1603-3.31038E-07-2.80316E-07 2.79747E-07 3.75169E-07-1.79182E-07 1.17412E-07
 -1      1604 1.92507E-06-7.83465E-07-4.84498E-07 8.95387E-07 7.26454E-07-4.71585E-07
 -1      1605 5.16571E-07 1.27265E-07-3.50101E-07 1.79453E-06 2.65362E-07 2.38339E-08
 -1      1606 1.44449E-06-3.04716E-06 4.08080E-07 6.15662E-07-5.06896E-07-1.44110E-07
 -1      1607 4.01357E-07-1.69270E-06 4.61950E-07 1.23554E-06-9.89814E-07 2.09488E-07
 -1      1608 1.98236E-07-6.89179E-07 2.17246E-07-5.82345E-08 1.22951E-08-4.78175E-08
 -1      1609-3.67417E-07 9.70884E-07-2.36836E-07 3.54611E-07-2.01838E-07 3.74310E-08
 -1      1610-1.08099E-07 1.81176E-07-1.05607E-08 3.09448E-07 5.23364E-09 1.40366E-09
 -1      1611-3.94856E-07 1.20970E-06-3.65532E-07 1.79549E-07-6.31096E-08 2.57520E-08
 -1      1612-5.17950E-07-3.64813E-07 7.40569E-07 1.20562E-06-3.59993E-07-2.55918E-07
 -1      1613-1.28722E-06 4.52880E-07 5.10841E-07-6.90148E-08-8.26093E-08 1.42078E-08
 -1      1614 7.81121E-08-7.05985E-07 2.04873E-07 1.47226E-07 2.60083E-07-2.23240E-09
 -1      1615 2.42963E-07-2.48413E-07 6.27811E-08 3.72087E-07 1.29391E-07 7.23658E-08
 -1      1616-2.78470E-06 5.32967E-07 9.22452E-07 1.15591E-07-5.83116E-08 1.30785E-07
 -1      1617 3.86158E-06-4.91907E-07-1.26816E-06-3.18805E-07 1.32556E-07 4.04088E-07
 -1      1618 3.73551E-06-1.20315E-06-1.03120E-06 5.94031E-08 1.08034E-07 1.45852E-07
 -1      1619 3.94828E-06-1.22886E-06-1.07302E-06-5.59621E-08-8.35969E-08 3.54481E-08
 -1      1620 4.05936E-06-9.66408E-07-1.16703E-06-5.46714E-07-1.95366E-07 1.31103E-07
 -1      1621 2.56618E-06 1.38519E-06-1.25618E-06 2.96219E-08 1.03351E-06 7.03252E-07
 -1      1622 4.58930E-06-1.09876E-06-1.42318E-06-1.23807E-07-9.54637E-08 3.78546E-08
 -1      1623 4.69185E-06-1.34476E-06-1.09732E-06 6.63625E-07-6.26268E-09-2.41065E-07
 -1      1624 4.29276E-06-1.30613E-06-1.34014E-06-6.35168E-08 2.00277E-08-5.24422E-08
 -1      1625 4.42093E-06-1.09875E-06-1.46081E-06 3.90881E-07-6.38055E-08-2.51389E-07
 -1      1626 2.43602E-06-8.06404E-07-6.72794E-07 2.13287E-07 2.02090E-07-1.37715E-07
 -1      1627-1.66182E-07 1.31570E-07 2.69887E-08 2.36299E-07 1.26564E-08 2.25961E-08
 -1      1628 2.90177E-06-7.92700E-07-9.17748E-07 2.06017E-07-6.48636E-08-1.86499E-07
 -1      1629 2.89514E-07-1.05261E-06 2.88046E-07 1.21996E-07 1.08483E-07-4.87956E-08
 -1      1630 4.15085E-06-4.00191E-06-2.75882E-06-1.79568E-06-1.99675E-07 2.88966E-07
 -1      1631 4.94683E-06-9.02054E-06 4.22020E-06-9.15446E-06 1.95293E-06-5.33094E-08
 -1      1632 4.51271E-06-1.73648E-05 7.00371E-06 1.90624E-06-4.46046E-06 2.84331E-06
 -1      1633 9.46994E-08-1.63876E-08-3.78728E-08-2.33369E-07-4.79921E-08 1.27119E-07
 -1      1634 9.89249E-07-5.59408E-07-1.75577E-07-2.52198E-07 8.22586E-09-1.66210E-09
 -1      1635 4.70401E-07 9.34671E-08-2.04203E-07-3.89327E-07-7.11281E-08 1.40141E-08
 -1      1636 5.41972E-08 1.71999E-08-2.39357E-08-4.56218E-08 2.24736E-07 1.86873E-07
 -1      1637-3.05362E-07 9.98510E-07-2.61530E-07 4.53779E-08 3.44823E-08-2.16026E-08
 -1      1638 4.62973E-07-5.18374E-07 1.36790E-07-5.21134E-08-1.76217E-07-2.67455E-07
 -1      1639-3.10142E-07 3.95398E-07-1.08305E-08-6.95969E-08-2.87492E-07-2.68607E-07
 -1      1640 4.50343E-07 5.27302E-07-2.27417E-07-4.29798E-07-3.63794E-07-2.84997E-07
 -1      1641 2.93322E-07-3.77749E-07 2.94429E-08-8.56016E-07-4.11375E-08 3.53254E-07
 -1      1642 6.23279E-08 5.69690E-08-1.31117E-07-6.40517E-07-2.16053E-07 9.38964E-08
 -1      1643-2.60087E-06 5.46821E-06-3.14017E-07 3.28555E-06-2.71203E-06-2.18872E-06
 -1      1644-3.85681E-06-4.76305E-07 1.00840E-06 3.25407E-06 4.50529E-06-2.56911E-06
 -1      1645-1.12575E-05-1.82729E-06 1.94910E-06 3.17871E-06 5.21387E-06-5.76498E-06
 -1      1646 1.19537E-06-2.86242E-06 5.09776E-07-3.31412E-07 1.02417E-07-1.00428E-07
 -1      1647-1.64087E-07 2.83435E-07-6.91347E-08-1.05739E-06 2.06436E-07 1.79686E-08
 -1      1648 5.42802E-07-1.86933E-06 4.78444E-07-8.09156E-07 4.87561E-07 6.73417E-08
 -1      1649 6.43608E-07-1.43444E-06 3.18082E-07-5.00451E-08 1.83405E-08-2.59689E-08
 -1      1650-1.87314E-06 5.38678E-07 5.13903E-07-4.71302E-07-1.35219E-07-2.02721E-07
 -1      1651 1.62179E-06-5.19522E-07-4.60079E-07-4.18526E-07-1.26237E-07-8.81921E-08
 -1      1652-2.43458E-06 8.27253E-07 6.57437E-07-3.20843E-07-6.34702E-08-2.67305E-07
 -1      1653-1.84914E-06 4.23470E-07 5.66499E-07-2.33693E-08-7.84040E-08 3.61823E-08
 -1      1654-2.30922E-06 6.18204E-07 6.69466E-07-1.35834E-08 7.03024E-09 3.63323E-08
 -1      1655-2.25728E-06 7.69758E-07 6.89161E-07 2.40848E-07-4.54256E-08 1.60459E-07
 -1      1656 3.24361E-08 4.23271E-11-1.32281E-08 4.21874E-09-5.10943E-10 1.19974E-08
 -1      1657 3.67552E-08-3.51949E-10-1.95898E-08 2.30468E-09-1.58808E-09 9.78166E-09
 -1      1658 1.56116E-09-2.20379E-11-5.08437E-09 1.03100E-09-2.99141E-10-1.20113E-09
 -1      1659-4.10394E-07 1.24866E-06-3.66435E-07-7.42461E-08-4.65013E-08-4.00470E-09
 -1      1660-3.79129E-07 1.18382E-06-3.57223E-07 7.77426E-09-1.08351E-08-3.41664E-08
 -1      1661-3.16706E-07 1.10188E-06-3.45929E-07-5.95017E-08-7.67933E-08-2.03874E-08
 -1      1662 2.07449E-06-4.43045E-07-5.39819E-07-3.42893E-07-2.67520E-08 6.04534E-07
 -1      1663 2.91543E-06-9.77290E-07-7.96034E-07 7.31643E-09 1.25230E-08 7.19870E-08
 -1      1664 1.70551E-06-3.80274E-07-7.11789E-07-7.83765E-07 1.25686E-09-9.93099E-08
 -1      1665 3.00976E-06-5.38749E-07-1.00278E-06 9.17381E-09 1.28529E-07-4.49227E-07
 -1      1666 5.79571E-06 4.81975E-06 4.71978E-06 7.47783E-06 1.73286E-06-3.01936E-06
 -1      1667 4.87913E-06-4.91895E-06 1.37607E-06 9.18866E-06 7.95765E-06-3.81032E-06
 -1      1668 6.52403E-06-5.19935E-05 1.88770E-06-5.01031E-06-8.24912E-06-1.11286E-05
 -1      1669 3.88449E-06-2.34423E-06-8.59822E-06 6.29908E-06-1.22360E-06-4.77107E-06
 -1      1670-9.35448E-08 2.65818E-07-7.17481E-08 5.60903E-08 1.90046E-08-4.24889E-11
 -1      1671-4.06594E-07 1.35582E-06-3.90860E-07 8.49291E-08 6.99006E-08 5.80882E-08
 -1      1672 3.70623E-07-1.09318E-06 2.80416E-07 5.99664E-08-1.10377E-07 4.77860E-08
 -1      1673-2.83393E-09 7.76802E-08-2.35934E-08 1.63013E-07-2.42803E-08 1.26461E-08
 -1      1674 3.63585E-07-1.15111E-06 3.20059E-07-1.09382E-08-8.32882E-09 3.85549E-08
 -1      1675-2.71033E-08 2.53974E-07-8.73630E-08-2.97724E-08-1.35176E-08 8.52121E-09
 -1      1676-3.77668E-06 1.44141E-06 1.15184E-06 1.71732E-07 3.97559E-08 1.31277E-07
 -1      1677-3.40949E-06-1.06125E-07 1.21879E-06-4.97684E-07-4.26358E-07-1.69421E-07
 -1      1678-3.75571E-06 1.32871E-06 1.14872E-06 3.17600E-07 2.66190E-08 1.25597E-07
 -1      1679-2.26646E-06 8.65096E-07 3.75992E-07 1.54051E-07-1.29136E-07-4.17796E-08
 -1      1680-2.52136E-06 1.27789E-06 4.96601E-07 1.00658E-06 1.84363E-07 8.37451E-07
 -1      1681-2.26678E-08 3.05814E-06-1.13526E-06-5.97140E-07 1.91043E-08 5.11077E-07
 -1      1682-1.19735E-06 1.80321E-06-4.32191E-07-6.09580E-07-2.90032E-07 3.86009E-07
 -1      1683-1.44135E-06 1.19806E-08 3.05327E-06-3.58178E-06-1.10142E-05 8.14050E-07
 -1      1684 9.50566E-06-1.83185E-05 2.91111E-06-1.48854E-05-4.95693E-06-5.59259E-06
 -1      1685 4.66449E-05-4.38914E-05 1.32270E-05-1.58145E-05-8.19164E-06 3.46320E-06
 -1      1686-5.94318E-07 1.72940E-06-4.59023E-07-7.17557E-07 2.87001E-07-4.72574E-08
 -1      1687-1.09262E-07 5.55639E-07-2.16882E-07-6.11670E-07 2.47139E-07-1.03416E-08
 -1      1688-9.11569E-07 1.88196E-06-5.11568E-07 6.65059E-08-9.75249E-08-5.53152E-08
 -1      1689-1.03371E-08 7.34707E-07-3.00146E-07-1.02684E-07-7.85349E-08-3.29442E-08
 -1      1690 8.45221E-07-2.57138E-06 5.88485E-07 9.68987E-09 2.09046E-07-1.65959E-08
 -1      1691 9.46097E-07-2.44862E-06 5.28415E-07-3.09599E-07-2.75835E-07-8.52924E-08
 -1      1692 1.38511E-06-3.20100E-06 6.31812E-07 3.60456E-07 2.72577E-07-6.39386E-08
 -1      1693 3.15513E-06-3.09018E-06-3.86909E-07-4.53648E-07-4.41510E-07-5.41374E-08
 -1      1694 6.06232E-06-6.93966E-06 2.32290E-07-6.14546E-06-3.44773E-08-1.04249E-06
 -1      1695 4.63542E-06-3.01728E-06 7.48505E-07-3.06999E-06 2.00259E-06-1.81841E-06
 -1      1696 1.66253E-06-7.43076E-07-3.94089E-07-5.16506E-08 3.65586E-08-1.07195E-07
 -1      1697 4.98520E-06-1.69713E-06-1.46686E-06 6.50164E-07 3.23556E-08-1.43838E-07
 -1      1698 5.15295E-06-1.62664E-06-1.42432E-06-1.12372E-07-2.02350E-08 5.46009E-08
 -1      1699 1.73004E-06-4.13521E-07-5.34478E-07 5.07521E-07 3.78761E-08-6.70688E-08
 -1      1700 8.50812E-07-5.71588E-08-2.73783E-07 2.01694E-07 5.54254E-08-3.39951E-08
 -1      1701 8.24058E-07 2.37575E-08-3.62284E-07 1.74066E-07 7.67848E-08-1.36405E-07
 -1      1702 1.58908E-06-4.99567E-07-5.48432E-07 2.91328E-07 3.44821E-08 4.06345E-08
 -1      1703 5.24381E-06-1.86255E-06-1.45780E-06 2.30042E-07-7.57668E-08-9.66937E-08
 -1      1704 1.75369E-06-7.55116E-07-4.25741E-07 2.66432E-07-2.72141E-08 4.16435E-09
 -1      1705 5.40132E-06-1.98804E-06-1.39716E-06 1.87096E-07-1.31233E-07-2.02544E-07
 -1      1706-4.40432E-07 1.41320E-06-3.98580E-07 3.52379E-08 2.26381E-08 2.48692E-08
 -1      1707-4.03354E-07 1.37423E-06-3.96483E-07-1.58346E-08 4.32323E-09 6.04798E-08
 -1      1708 6.71996E-07-5.60991E-07-1.20048E-07-2.00880E-07-1.82306E-07 2.20574E-07
 -1      1709 2.07004E-08 6.30826E-10-8.07141E-09-1.67748E-08 7.25325E-09-4.30454E-09
 -1      1710 4.91502E-10-3.57639E-10-2.90588E-10-1.01495E-09 9.36975E-10-1.66837E-09
 -1      1711 2.13372E-08-9.59404E-10-6.43156E-09-6.30142E-09 2.87974E-09 3.13217E-09
 -1      1712-3.44387E-06 7.59590E-06-1.00978E-06-1.15510E-05 1.89312E-06 6.48808E-08
 -1      1713-6.10614E-06 1.67616E-05-3.72674E-06-4.01345E-06 1.47894E-06-4.06810E-06
 -1      1714-4.37871E-06 1.05273E-05-3.37897E-06-4.30052E-06 4.73615E-07-5.15398E-07
 -1      1715 1.79281E-07-2.37757E-07-2.09636E-09 5.51101E-07 7.27584E-08-1.48515E-08
 -1      1716 4.41858E-08 5.39981E-08-1.55665E-08 5.59409E-07-7.84603E-08 6.41246E-08
 -1      1717-2.64905E-06 6.92486E-07 8.23238E-07-2.65367E-10-1.27777E-08 1.05655E-08
 -1      1718-2.95474E-06 9.93110E-07 7.67997E-07 3.16922E-07 1.18825E-08-1.97618E-07
 -1      1719-3.04976E-06 9.92317E-07 8.94405E-07 2.02462E-08 6.22381E-08 1.57403E-08
 -1      1720 9.38575E-08-7.85271E-07 2.56511E-07 2.07464E-07-2.34259E-07 4.30526E-08
 -1      1721-2.37373E-07 2.70905E-07-3.45392E-08 5.69312E-07-2.69843E-08-2.10143E-08
 -1      1722 2.75385E-06-1.36129E-05 5.61232E-06 1.57632E-06 1.64830E-06-1.95030E-06
 -1      1723-9.35856E-08-1.33090E-06 4.54671E-06-5.29456E-06 7.82950E-06-4.86945E-07
 -1      1724 8.65566E-06-1.65175E-05 1.91526E-06-1.15432E-05 4.20385E-06 4.72754E-06
 -1      1725 5.03978E-07-1.07796E-07-2.05500E-07 4.02628E-07-5.73339E-08 2.34677E-07
 -1      1726 1.04388E-06-3.44477E-07-3.24350E-07 3.25609E-07-4.25191E-08 1.86167E-07
 -1      1727 3.69792E-07-1.32338E-07-1.08257E-07 5.86800E-10-4.86109E-09-1.44695E-08
 -1      1728 8.67059E-07-3.03177E-07-2.20371E-07 1.82253E-08 2.71996E-08-1.26237E-08
 -1      1729 1.50972E-06-8.30642E-07-3.03672E-07 6.55141E-07-1.07148E-07-3.88606E-07
 -1      1730-2.91324E-06 3.21256E-07 8.55083E-07-5.05303E-07 2.34702E-07-1.34461E-07
 -1      1731 5.06594E-06-1.61715E-06-1.51991E-06 6.32800E-07-2.25383E-08 2.65265E-07
 -1      1732 1.75870E-06-7.28222E-07-3.86010E-07 2.33685E-07-1.10099E-08 2.49475E-08
 -1      1733 2.72705E-07-1.09873E-06 2.97097E-07-2.34212E-08 1.17623E-08-1.40515E-08
 -1      1734-1.89600E-06-1.91082E-07 4.91613E-07-7.21868E-07 1.09872E-07-8.64215E-07
 -1      1735 1.41615E-06-4.00844E-07-5.30230E-07 4.58070E-07-1.17141E-07-1.21718E-07
 -1      1736 3.29708E-06-9.48623E-07-9.15648E-07 1.89074E-07 2.52393E-07 2.56447E-07
 -1      1737 3.10848E-06-4.92822E-07-9.04493E-07 1.87565E-08 4.80769E-07 3.33691E-07
 -1      1738 1.35799E-06-4.11858E-07-3.63233E-07 3.59570E-07-4.12554E-08 3.26147E-08
 -1      1739 4.05899E-06-1.42105E-06-1.21031E-06 2.56820E-07 1.57307E-07 1.14014E-07
 -1      1740 8.93809E-07-1.63285E-07-1.90618E-07 2.78253E-07 6.83238E-08-1.44987E-08
 -1      1741-4.24672E-07 1.40580E-06-3.80866E-07-4.20425E-09 2.82127E-08 1.45659E-08
 -1      1742-3.10399E-06 1.09966E-06 5.60684E-07 5.83125E-08 6.03781E-08 9.96000E-08
 -1      1743-3.23401E-06 1.27136E-06 5.67395E-07 9.97325E-07 1.56685E-07-7.32452E-07
 -1      1744 2.05870E-06-6.17046E-07-7.13066E-07 2.38064E-07 5.04383E-08-1.07700E-07
 -1      1745 2.24039E-09-7.97004E-07 2.01819E-07-3.83796E-08 4.31464E-08 1.57902E-07
 -1      1746 5.61871E-07-9.90570E-07 2.50160E-07-6.84205E-08-7.82918E-08-2.23151E-07
 -1      1747 2.95021E-07-9.12404E-07 2.58260E-07-3.01244E-08 1.28505E-08 8.42046E-09
 -1      1748 2.20519E-06-1.36631E-06 2.62708E-07 8.88433E-07-9.55235E-08-9.60014E-07
 -1      1749 7.48411E-07 6.82214E-07-5.47846E-07 8.15243E-07-2.38669E-07 8.62379E-08
 -1      1750 2.04952E-08-7.99038E-09 3.53620E-09-4.72245E-08 2.04996E-08-9.92143E-09
 -1      1751 2.29699E-08-6.96329E-09-1.16436E-08-1.12986E-07 1.04422E-08-3.23278E-08
 -1      1752 8.35203E-11-3.54120E-09 5.31038E-09-6.80555E-09 5.65821E-09-3.11771E-09
 -1      1753 2.10345E-08-4.57891E-09 2.97850E-09-4.28162E-08-1.79490E-08 1.00307E-08
 -1      1754 3.50817E-09-8.93074E-09-9.50998E-09-1.16820E-07-1.35521E-08 4.77713E-08
 -1      1755 1.35857E-08 8.01403E-09 4.01038E-09-7.45738E-09 3.36583E-09 9.51184E-09
 -1      1756 8.70208E-07-1.35336E-07-3.13961E-07 4.39261E-07 3.23323E-08-2.44270E-07
 -1      1757-1.40165E-05 3.94407E-05-1.86134E-05 7.26367E-06-2.98643E-06-3.45969E-06
 -1      1758-1.49490E-05 4.19128E-05-1.96625E-05 3.27784E-06-2.49782E-06 1.89139E-06
 -1      1759 1.17652E-05-2.02518E-05 1.02267E-05-5.55496E-06 1.52372E-06-2.46713E-06
 -1      1760-1.86964E-05 6.25595E-05-2.93638E-05-6.93505E-07-3.92921E-06 5.03025E-08
 -1      1761 1.52374E-06-4.15711E-07-4.64318E-07-1.12730E-08 5.52297E-08-2.23928E-09
 -1      1762 1.79781E-06-4.57309E-07-5.76795E-07 2.40269E-07 1.29447E-08 1.98372E-07
 -1      1763 1.84107E-06-5.51957E-07-5.35579E-07 2.78589E-08 3.27341E-09 6.73719E-09
 -1      1764-1.23118E-06 3.48805E-07 3.37639E-07-2.23484E-08-7.51774E-09-1.27494E-08
 -1      1765-7.98115E-07-6.17692E-09 3.86985E-07 1.52339E-07-2.74896E-08-1.79366E-07
 -1      1766-2.47962E-06 9.45535E-07 7.18274E-07 1.01081E-07-2.79716E-08 5.03300E-08
 -1      1767-1.86800E-06 3.82488E-07 6.03667E-07-9.91612E-08-2.57008E-08 4.79912E-08
 -1      1768-3.54978E-07-3.85644E-08 1.41488E-07-2.35869E-07-7.28131E-08-2.85691E-08
 -1      1769-2.83400E-07-9.26290E-08 1.66546E-07-4.03785E-07 7.04004E-08 7.31416E-08
 -1      1770-7.63168E-08-1.94498E-08 6.44424E-08-2.46208E-07-9.12323E-08 5.08434E-08
 -1      1771 4.13689E-06-1.31432E-06-1.06842E-06 5.32325E-07 2.18465E-07 3.75114E-07
 -1      1772 1.18749E-07-8.67984E-06 1.67039E-06-3.25908E-05-6.16981E-06-5.30061E-06
 -1      1773-6.14278E-07-6.02105E-06 1.71900E-06 2.73334E-06-6.44563E-06-5.01911E-07
 -1      1774-1.41178E-06 2.66644E-07 5.05106E-07 1.46678E-07-2.96675E-08 1.14988E-07
 -1      1775 5.72695E-07-2.14445E-07-1.56255E-07 3.13676E-07-1.91730E-08 1.09354E-07
 -1      1776 4.01882E-06 9.85535E-06-4.12703E-06-1.78463E-06 7.42700E-06 1.60458E-06
 -1      1777 3.38613E-06 4.04347E-06-2.84218E-06-1.79528E-06-1.64261E-06 3.19199E-07
 -1      1778-4.00315E-06 1.96180E-06 1.17835E-06 5.08027E-07 2.12337E-06 1.29574E-07
 -1      1779-4.52369E-06 1.81640E-06 8.93952E-07 1.99823E-06 2.81679E-07 1.51645E-06
 -1      1780-3.11486E-07 3.19535E-07-4.99764E-08 5.55757E-07 9.74421E-08 7.55612E-08
 -1      1781 1.79803E-09-9.29315E-08 5.26057E-08 5.81417E-07 4.29851E-08-4.41636E-08
 -1      1782 4.12526E-06-1.39667E-06-1.08616E-06 2.67553E-07 9.30488E-08-1.07116E-07
 -1      1783 7.13007E-07-1.99757E-07-2.15248E-07 4.32258E-07-7.44485E-08 5.12402E-08
 -1      1784 7.76834E-07-1.10131E-07-5.32428E-07 3.59350E-07-4.20898E-08 2.59426E-07
 -1      1785-9.71203E-07 1.98629E-07 3.69047E-07-3.63408E-07-4.05798E-08-1.38802E-07
 -1      1786-3.02670E-07-2.70276E-07 2.23034E-07-4.47361E-07 1.75517E-07 4.44163E-08
 -1      1787-7.87810E-08-9.05465E-07 4.53924E-07-7.85502E-07 2.91536E-07 5.40398E-07
 -1      1788 3.39442E-06-1.08252E-06-9.35413E-07 2.93055E-07 7.92584E-08-1.12724E-07
 -1      1789 3.86462E-06-8.51587E-07-1.07376E-06-1.12997E-07-6.69868E-08 1.62797E-08
 -1      1790 4.30202E-06-1.11251E-06-1.59518E-06 1.52132E-07 1.36341E-07 3.04667E-08
 -1      1791 3.91272E-06-1.39597E-06-7.32159E-07 3.33314E-07-6.48159E-08 3.27237E-07
 -1      1792-3.68451E-06 3.04426E-07 1.50171E-06-3.73450E-07 1.26448E-07 1.70982E-07
 -1      1793-3.53214E-06 1.31111E-06 1.15459E-06 1.19973E-07 1.60247E-07-1.78825E-08
 -1      1794 2.07497E-06 1.27224E-06-1.38991E-06-2.23081E-06-1.00016E-07 6.61684E-08
 -1      1795 2.27310E-06 1.64676E-06-1.40752E-06 9.66576E-08-6.11200E-07-1.08138E-06
 -1      1796-1.06061E-06 2.87656E-06-1.04579E-06-2.12028E-07-7.62895E-08-1.41147E-07
 -1      1797 3.91636E-06-3.58289E-07-1.40011E-06-4.79680E-07-1.95065E-07-3.77850E-07
 -1      1798 5.70483E-06-1.99879E-06-8.58386E-07 7.68734E-07-1.18853E-06-1.49635E-07
 -1      1799 4.59966E-06-1.80797E-06-9.50584E-07-1.23735E-07 1.70832E-07-2.38541E-07
 -1      1800 4.20992E-06-1.25117E-06-1.24629E-06 5.20568E-07 2.90964E-08-2.25867E-07
 -1      1801 3.18833E-06-6.21652E-07-4.82206E-07 2.01535E-07 8.54102E-08-1.62101E-08
 -1      1802 1.17467E-06-2.04353E-07-3.33643E-07 4.92252E-07-6.12537E-08-2.40721E-08
 -1      1803 3.53899E-05-2.99962E-05 4.20409E-06-2.52106E-05 1.02025E-05 3.09931E-06
 -1      1804 3.08692E-05-5.23641E-05 6.35534E-06 2.39202E-05-2.40203E-06 1.68816E-06
 -1      1805 4.34365E-06-1.40331E-06-1.06794E-06-1.62048E-07-9.18998E-08-6.56116E-08
 -1      1806-8.52260E-08 4.04939E-07-1.03817E-07 3.60075E-07-2.08766E-07-2.69334E-08
 -1      1807-4.00029E-07 1.42035E-06-4.51811E-07 1.38206E-06-5.29680E-08 3.37219E-07
 -1      1808 9.93387E-07-5.08895E-07-1.52720E-07 2.83955E-07 2.59031E-07-3.43996E-08
 -1      1809 7.50130E-07-2.12570E-07-9.11696E-07 6.10268E-07 3.90297E-07-1.82751E-08
 -1      1810-3.33889E-06 9.31602E-07 1.24152E-06 3.73173E-07-5.01506E-09-6.97895E-08
 -1      1811-3.72155E-06 1.27840E-06 8.71123E-07 6.18289E-07 4.68469E-07-1.12636E-07
 -1      1812 4.83626E-06-1.55764E-06-1.44757E-06 7.14848E-08 3.49892E-08 9.93460E-09
 -1      1813 9.15645E-08-3.26421E-08-7.75200E-08 2.05396E-07-1.66167E-07 3.92085E-08
 -1      1814 6.90333E-07-1.96706E-07-2.39908E-07-3.83238E-07-5.22666E-08-2.15156E-07
 -1      1815 7.15122E-07-1.43130E-08-3.28197E-07-1.50498E-07 1.98037E-08-4.80741E-08
 -1      1816-3.47645E-08-5.92102E-08 9.69342E-11 9.35333E-08-1.35144E-07-3.41747E-08
 -1      1817 1.18267E-06-7.27531E-07-2.72731E-07 7.52560E-07 1.27794E-07 1.48328E-07
 -1      1818 2.71762E-06-5.07645E-07-8.32343E-07-5.72552E-07 3.23499E-08 3.18131E-07
 -1      1819 2.14243E-06-1.44372E-06-5.47705E-07-1.21030E-07-4.56061E-07 1.41403E-07
 -1      1820 2.41226E-06-5.05776E-07-7.31827E-07 6.76709E-08-1.59695E-07-1.43739E-08
 -1      1821 8.44070E-07-3.29065E-07-9.76555E-08 4.53119E-07 5.85333E-08-3.06019E-07
 -1      1822 4.51849E-07-8.56349E-08-2.56875E-07 3.50644E-07-6.93247E-08-2.01714E-07
 -1      1823-7.49468E-09-7.17954E-08 3.20094E-08 3.19616E-07 2.60351E-08 2.55949E-10
 -1      1824 2.73268E-07-1.00838E-06 2.38562E-07 1.98477E-07-1.88461E-07 7.37033E-08
 -1      1825 2.44292E-06-4.52692E-07-2.10180E-07 4.53817E-07 1.20815E-07 8.95360E-08
 -1      1826 7.09285E-07 4.25068E-08-1.00741E-07 2.52815E-07-1.19049E-08-1.24474E-07
 -1      1827-1.36012E-06 3.50090E-07 3.87033E-07-7.51521E-08 1.94957E-07 8.02122E-08
 -1      1828-3.07154E-06 5.00141E-06-8.82631E-07-8.14866E-06 2.91707E-07 8.32070E-07
 -1      1829-2.24244E-06 6.42781E-06-6.28296E-07-5.75786E-06-9.71982E-07-1.29136E-07
 -1      1830-3.86013E-06 2.44745E-06-1.68425E-06-2.88827E-06-2.03638E-06-2.73652E-06
 -1      1831-1.78695E-06 3.57653E-06-5.38517E-07-2.19874E-06-4.87065E-07-6.14754E-07
 -1      1832 1.30605E-06-3.70644E-07-3.66353E-07 2.86588E-07 2.48013E-08-6.24112E-08
 -1      1833-9.63401E-07 3.46515E-07 9.93114E-08 2.71670E-07-1.25262E-07 1.14486E-07
 -1      1834 4.03286E-06-1.30198E-06-1.10512E-06 2.93324E-07-6.66254E-08-1.74238E-07
 -1      1835 1.52460E-06-5.52932E-07-4.04674E-07 3.87935E-07 6.73961E-08 6.57456E-08
 -1      1836-1.98872E-05 1.28389E-05 1.03710E-05-5.51776E-05-2.63362E-06 3.04358E-06
 -1      1837-1.17691E-06 5.68504E-06-8.19620E-07-2.60584E-05-2.23108E-06-1.48801E-06
 -1      1838-3.21014E-05 6.10726E-05-3.25810E-06 1.00225E-05 1.46681E-06 2.04095E-06
 -1      1839-2.68620E-07 1.73567E-05-5.70187E-06-4.75693E-05 3.86743E-06-2.70075E-06
 -1      1840 1.35586E-06-2.86638E-07-4.64716E-07 5.55483E-07 9.11933E-08-1.99999E-07
 -1      1841 2.58211E-06-6.83566E-07-7.08676E-07-1.88994E-08 2.55516E-07-8.79515E-07
 -1      1842-4.04786E-07 1.17457E-06-3.14183E-07 2.41042E-07 1.86039E-07 2.06382E-08
 -1      1843-7.95297E-06 6.69313E-06 2.45506E-07-6.11136E-06 3.59706E-06-1.33801E-06
 -1      1844 5.14865E-05-5.54107E-05 6.20681E-06-3.00182E-06-7.23644E-06-6.02131E-06
 -1      1845-1.39713E-05-5.54770E-06 9.31758E-07 4.75438E-06-1.03272E-05 2.62803E-06
 -1      1846 5.79221E-07-1.73098E-07-1.50548E-07-6.39101E-07-3.02694E-09-3.50293E-07
 -1      1847 1.87496E-07-1.27083E-07-1.29580E-08 3.45294E-07 9.15311E-08-3.40156E-09
 -1      1848 3.94215E-06-1.25596E-06-1.10373E-06-4.22672E-07 4.33429E-08-7.04243E-08
 -1      1849 1.58376E-07-1.41187E-07 7.49136E-08 6.20570E-07 1.36767E-07 2.87082E-07
 -1      1850 6.99568E-07-4.26578E-07-8.92709E-08 5.40591E-07 1.36612E-07 2.85980E-07
 -1      1851 4.91047E-06-1.48906E-06-1.40465E-06-6.04416E-08-1.88653E-08-9.10883E-09
 -1      1852 4.80660E-06-1.39384E-06-1.41624E-06-3.73471E-07-1.10093E-07 1.29000E-07
 -1      1853-3.10081E-07 1.24566E-07 5.32363E-08-3.25479E-07-3.10281E-08-7.28805E-08
 -1      1854-1.02549E-06 4.40187E-07 2.52790E-07-2.78077E-07-8.35122E-08-3.01816E-07
 -1      1855-3.61440E-07-1.05893E-07 1.19376E-07-9.68469E-08 4.83142E-09 5.42372E-08
 -1      1856-1.23184E-06 9.21239E-07 3.53705E-07 1.08978E-07-4.90125E-08 6.02901E-08
 -1      1857-4.03929E-07 1.40631E-06-4.60109E-07-1.32550E-08-3.43203E-09-1.49448E-08
 -1      1858-1.13076E-07 2.90066E-07-6.58828E-08 1.90090E-08-3.17919E-08-1.33700E-07
 -1      1859 1.20004E-07-4.95093E-08-2.69638E-08-1.03417E-07 7.49194E-08 1.53106E-07
 -1      1860 1.78576E-07-1.10529E-06 2.98005E-07-7.41602E-08 1.30431E-09 6.16597E-08
 -1      1861-9.35266E-09 3.38851E-08-1.63453E-08 9.00185E-08-1.47647E-08 3.25027E-08
 -1      1862 1.35738E-06-4.88033E-07-3.22239E-07 3.83195E-07 2.66444E-09-2.13200E-08
 -1      1863-2.45510E-06 7.81800E-07 7.45943E-07 2.31285E-07-1.72398E-08 1.39320E-07
 -1      1864-2.32745E-06 6.83378E-07 6.73759E-07-7.19122E-09 5.51582E-08 1.29923E-08
 -1      1865-2.46242E-06 4.59742E-07 1.02300E-06 1.20380E-07-1.12605E-07-6.07544E-08
 -1      1866 3.24174E-06-1.02674E-06-8.41611E-07 1.43727E-08 1.33709E-08 6.20491E-08
 -1      1867 3.64027E-06-9.33865E-07-1.19555E-06 1.71063E-07 7.92747E-08 2.22703E-07
 -1      1868 3.15735E-06-1.02541E-06-6.92906E-07 2.58844E-07-2.40522E-07-2.21943E-07
 -1      1869 3.58782E-06-9.69890E-07-1.05729E-06-1.39241E-08-7.32791E-08 9.75112E-11
 -1      1870 2.88331E-05-3.36838E-05 8.71939E-06 2.89380E-05 5.28354E-06-1.64271E-06
 -1      1871-2.93692E-06 7.07495E-07 8.79979E-07-5.06113E-07 2.40069E-08 1.86440E-07
 -1      1872 3.04814E-07 1.20929E-07-2.79685E-07 1.91507E-06-1.54948E-07-1.05384E-07
 -1      1873-1.83151E-09 1.97183E-09-1.59527E-08-6.19878E-07 1.87284E-08-8.22078E-08
 -1      1874-2.33084E-06 6.90197E-07 6.93413E-07-3.54557E-07 7.31709E-08 3.17146E-07
 -1      1875 1.10695E-06-4.56047E-07-2.66911E-07-3.63507E-07 1.03659E-08 5.04786E-08
 -1      1876-1.65150E-05-5.91237E-06 2.49403E-06-4.77121E-05 1.76683E-07-1.21202E-05
 -1      1877-2.53411E-07 9.51040E-07-2.81428E-07-1.25651E-07-9.50523E-08 1.73860E-08
 -1      1878-3.33988E-07 1.08780E-06-3.21401E-07 2.29400E-08-3.97815E-08 2.15792E-08
 -1      1879-2.77743E-07 8.47093E-07-2.64742E-07 4.55374E-08-4.64886E-08-4.07793E-08
 -1      1880 3.62944E-07 5.70533E-09-9.91347E-08-7.11423E-08-1.14690E-09-6.03639E-08
 -1      1881 5.54670E-08-1.44937E-09-2.88574E-08-2.90920E-09 5.49403E-09-1.67159E-09
 -1      1882 7.88402E-07-4.30350E-08-3.10057E-07-9.10266E-08-1.56416E-08 4.00790E-08
 -1      1883-3.31739E-06 4.22818E-07 1.10642E-06 6.93849E-08-1.44423E-07 3.68314E-08
 -1      1884-3.98450E-08 1.12912E-07-1.11908E-08-4.77732E-07-1.39908E-07-5.03322E-08
 -1      1885-3.10253E-06 8.69184E-07 9.52347E-07-3.22689E-07 6.65968E-08-1.92600E-07
 -1      1886 7.79222E-07-2.33488E-07-2.37564E-07-5.70271E-07 6.90724E-08-1.82648E-07
 -1      1887-2.40360E-06-2.93325E-06 2.91298E-06 4.22940E-06 3.07797E-07-1.50164E-06
 -1      1888-3.14962E-06-1.03056E-06 9.86064E-07 1.04100E-06 2.09363E-06-1.53722E-06
 -1      1889-3.46443E-06 1.19291E-06 8.26414E-07 5.60292E-07 4.60990E-09 3.78145E-07
 -1      1890 3.48633E-06-9.53459E-07-1.12454E-06 2.50711E-07 1.03947E-07 6.47472E-08
 -1      1891 2.89696E-07-1.41858E-07-1.12910E-07 2.31621E-07-1.06937E-07 2.78607E-08
 -1      1892 5.51496E-07-1.30918E-07-2.07887E-07 4.17665E-07 8.94973E-08-7.85029E-08
 -1      1893 1.78920E-06-4.85215E-07-5.41849E-07-1.29541E-07-1.37972E-07 2.18186E-07
 -1      1894 4.35619E-06-8.94868E-07-8.74179E-07 3.23945E-07 3.75858E-07-3.16144E-07
 -1      1895 5.55750E-06-2.70363E-06 5.41819E-07-4.28691E-07 9.22518E-07-6.50043E-07
 -1      1896 4.38244E-06-1.17789E-06-3.56537E-07-1.06729E-07-1.09263E-07 1.74509E-07
 -1      1897 3.10778E-07 2.94114E-06-1.28816E-06-6.20250E-07 1.44067E-09-3.36808E-07
 -1      1898 1.69935E-06-5.18340E-07-5.49077E-07 4.98677E-07-3.22420E-07 1.71052E-08
 -1      1899-5.48498E-06 6.55169E-06 2.93905E-07-3.58009E-07 2.01495E-06 5.63723E-07
 -1      1900 1.27530E-06-4.90177E-06 1.90746E-07 3.92326E-06 8.40018E-07 6.65695E-08
 -1      1901-4.21072E-06-5.72996E-06 5.77738E-06 1.13300E-06-5.39873E-06 1.76015E-06
 -1      1902-8.27953E-06 3.81289E-05-2.38536E-05 4.69367E-06 9.96346E-06 8.60804E-06
 -1      1903-1.86049E-06 3.73450E-07 5.18801E-07-4.79994E-07-1.62635E-07 2.36567E-07
 -1      1904 1.69945E-06-6.68798E-07-4.47231E-07-4.70454E-07 1.56474E-07 6.34226E-08
 -1      1905-2.46709E-06 8.95961E-07 7.80617E-07-2.27443E-07 1.00285E-07 2.53401E-07
 -1      1906-1.74276E-06 4.24367E-07 5.53492E-07 1.25564E-06 3.35072E-08-6.39796E-07
 -1      1907 9.35471E-07-1.08407E-07-2.85499E-07-5.67008E-07-1.09653E-07-1.09525E-07
 -1      1908-3.04241E-08-1.37679E-07 4.55143E-08-1.10490E-07 7.92503E-09-1.83572E-08
 -1      1909 5.94852E-08-7.76013E-08 1.74734E-08 1.23483E-08 5.54835E-09-2.43821E-08
 -1      1910 8.20148E-08-2.25009E-07 7.87140E-08 5.49821E-09-1.67659E-09-3.16564E-09
 -1      1911-8.75999E-08 2.67041E-07-1.16875E-07 1.36535E-07 2.14288E-07-1.94460E-07
 -1      1912 2.43203E-07-9.98478E-07 3.19371E-07 2.34709E-08 2.18833E-08-3.37033E-08
 -1      1913 3.06273E-07-9.42871E-07 2.83332E-07-7.15357E-08 5.76894E-08-1.82503E-08
 -1      1914-3.56556E-06 8.38699E-07 1.21279E-06-6.61925E-08-2.34334E-07 7.32924E-08
 -1      1915-3.80229E-06 1.02992E-06 1.26101E-06 9.87405E-07-1.28055E-07 3.24368E-07
 -1      1916-3.74164E-06 1.50298E-06 8.59947E-07 2.70322E-07 1.69501E-07 1.94019E-07
 -1      1917 4.53589E-06-2.07478E-06-4.73057E-07 2.62783E-07-3.99400E-07 2.20256E-07
 -1      1918-3.13806E-07 1.14984E-06-3.80763E-07 5.70465E-09-4.35978E-08-5.71915E-08
 -1      1919 9.95612E-07-2.37432E-07-2.94638E-07 2.60896E-07-3.45993E-08-3.92177E-08
 -1      1920 5.06042E-06-1.43198E-06-1.65755E-06 2.25436E-07 7.09217E-09-1.56105E-07
 -1      1921-1.47070E-07 3.25269E-07 4.74314E-09 2.97447E-08 3.75404E-08 4.42055E-08
 -1      1922-2.80844E-07 8.19985E-07-2.04745E-07 3.96212E-08 2.71738E-08-8.24954E-09
 -1      1923-2.89004E-06 8.36846E-07 7.89092E-07-1.18849E-07-2.42216E-08 1.17776E-08
 -1      1924-2.86463E-06 9.83812E-07 6.62376E-07 5.68094E-08 1.04440E-07-1.40425E-07
 -1      1925-2.98773E-06 7.87772E-07 8.42753E-07-3.89398E-07-6.39225E-08-1.35056E-07
 -1      1926-3.73422E-07 1.26975E-06-3.40458E-07-3.67709E-08 7.72965E-08-3.60109E-08
 -1      1927-1.36832E-07 1.84324E-07-2.23128E-07 2.16130E-07-1.75960E-08 2.11764E-07
 -1      1928-6.35624E-07 2.33338E-07 7.86784E-08 2.91211E-07-1.17440E-07 1.55750E-07
 -1      1929-5.19930E-07 1.35751E-07 1.68709E-07-3.52564E-08 7.36453E-09-4.23058E-08
 -1      1930 5.54019E-06-1.50925E-06-1.58422E-06 5.46961E-08-6.71813E-08-1.06004E-07
 -1      1931 5.29565E-06-1.27861E-06-1.51564E-06 3.57805E-08 1.35445E-08 3.21808E-08
 -1      1932-4.67431E-07 1.42930E-06-3.71289E-07 4.96345E-08-1.13797E-08-2.69861E-09
 -1      1933-2.99827E-06 8.96147E-07 8.56581E-07-4.73312E-07 1.15285E-08 2.43613E-07
 -1      1934-1.85338E-07 6.85001E-07-2.43276E-07-2.11051E-07 3.79684E-08 2.28068E-08
 -1      1935-1.65572E-07 4.32116E-07-1.02287E-07 2.13663E-08 1.50241E-08 5.18601E-08
 -1      1936-2.04466E-07 6.68914E-07-1.61411E-07-1.94788E-07-1.42454E-07 6.76540E-08
 -1      1937-9.14586E-07 3.29261E-07 1.42740E-07-4.14724E-07 3.35296E-08-2.36394E-07
 -1      1938 5.86261E-07-3.05004E-07-1.59547E-07-2.91717E-07-1.29857E-07 4.19766E-07
 -1      1939 6.28932E-06-2.56858E-06-1.55090E-06-2.45280E-08 7.33827E-08 2.28777E-07
 -1      1940 1.37616E-06-4.71922E-07-3.90232E-07-4.80680E-07 2.43190E-08-9.73665E-08
 -1      1941 4.99760E-06-1.60821E-06-1.39934E-06-3.85314E-09 2.30121E-08-1.15709E-08
 -1      1942 1.33632E-06-4.48284E-07-3.54127E-07 2.75675E-07-3.20366E-08 1.63357E-07
 -1      1943 1.40680E-07-6.24882E-09-7.69822E-08 2.91591E-07-8.68891E-08-4.49808E-08
 -1      1944 3.92992E-07-5.47701E-08-1.56728E-07 3.73697E-07-5.09094E-09-5.86511E-08
 -1      1945 1.62920E-06 5.74596E-07-2.32373E-06 1.22496E-06-5.05611E-07-7.60173E-07
 -1      1946 1.40117E-07-1.19616E-07-1.76874E-08-3.71090E-07-2.64617E-07 4.05933E-08
 -1      1947 2.27518E-07-2.27180E-07 6.04806E-09-8.50532E-07-4.85285E-08 4.10504E-08
 -1      1948 3.21686E-07-1.29662E-06 4.63586E-07-8.00025E-07-4.31700E-07 8.64735E-09
 -1      1949 6.27542E-07-3.91979E-08-1.55433E-07-2.72036E-09-7.80372E-08-2.26555E-07
 -1      1950 6.25256E-07 3.64166E-07-2.19867E-07-7.49655E-08 2.67782E-07 4.52675E-08
 -1      1951 8.25257E-07-2.57642E-07-2.31744E-07 4.44511E-08-2.34145E-08 5.82927E-09
 -1      1952 8.13624E-07-3.94672E-07-2.19467E-07 4.97508E-08 8.09903E-08 2.51494E-07
 -1      1953 5.52716E-06-2.01236E-06-1.60384E-06 1.72517E-07 1.29474E-08 3.45616E-08
 -1      1954 1.02180E-07-9.84896E-08-3.76065E-09-9.19174E-08-2.93137E-08-4.40963E-08
 -1      1955 1.18778E-07-8.42586E-08-2.46055E-09 1.77818E-08 3.45606E-08 3.91512E-08
 -1      1956 8.11388E-08-6.98534E-08-2.85651E-09-4.68167E-08 2.58760E-08 5.81250E-09
 -1      1957 5.83842E-06-1.70634E-06-2.00800E-06-1.82019E-07 5.08930E-09-8.62684E-08
 -1      1958 4.23358E-07 2.40007E-09-1.68549E-07-7.97245E-08 1.61123E-08 5.39365E-08
 -1      1959 9.78771E-07-1.07874E-07-3.76082E-07 9.91026E-09-6.05519E-08 5.88153E-09
 -1      1960 6.18547E-08-2.72470E-08-2.15262E-08 3.67916E-09 7.46457E-11 3.79722E-08
 -1      1961 3.37248E-07-1.04298E-06 2.97435E-07-3.18080E-08 2.24918E-08 2.49959E-08
 -1      1962 4.28949E-07-1.13242E-06 3.26873E-07-1.01763E-08-1.96410E-08 1.24821E-08
 -1      1963-1.22740E-06 1.28597E-06 2.64511E-07-4.70248E-07 4.71971E-07 2.86120E-07
 -1      1964-4.92054E-06 2.45512E-06-5.69542E-07-6.33546E-07-7.18317E-07-5.30572E-07
 -1      1965-8.57247E-07 3.56151E-07 2.65008E-07-1.97436E-07 7.71184E-09-2.43461E-07
 -1      1966-2.64613E-07 1.29982E-06-4.48954E-07 1.38756E-06 3.00337E-07-4.64663E-07
 -1      1967-2.90860E-06 9.46189E-07 9.04002E-07 2.13005E-07-5.87166E-08 1.48608E-07
 -1      1968 4.52743E-07-1.64950E-06 5.28073E-07-1.65709E-08 5.92301E-08 9.76153E-08
 -1      1969-1.84355E-06 5.61303E-07 5.32543E-07-4.78225E-07-1.31917E-07-3.12139E-07
 -1      1970 5.07364E-06-1.65121E-06-1.50023E-06 3.23211E-09 2.38395E-08-6.51208E-08
 -1      1971 2.99376E-06-1.02444E-06-6.11586E-07 2.84842E-07-4.02957E-08 2.94117E-07
 -1      1972 3.72543E-07-9.37282E-07 2.49375E-07-5.14475E-07 3.70513E-07-3.57453E-08
 -1      1973 9.58048E-08-6.66748E-07 2.56835E-07 7.31295E-08-2.84536E-08-5.77790E-08
 -1      1974-3.52268E-07 1.15034E-06-3.34865E-07-2.73780E-08-1.74683E-08 1.62096E-08
 -1      1975-4.24305E-07 1.34803E-06-3.94990E-07-3.92821E-09 2.64172E-08 3.25761E-09
 -1      1976-1.60309E-06 2.82006E-06-7.15099E-07-4.57515E-07-5.98518E-07-5.70626E-07
 -1      1977 3.52745E-05-2.33717E-05 1.31606E-05-3.51910E-05-2.23245E-07 3.83809E-06
 -1      1978-6.02399E-06 4.15669E-05-5.49795E-06-2.85852E-05 8.01064E-06 5.01808E-06
 -1      1979-1.32501E-05-1.43513E-05 4.49950E-06-4.76462E-05 3.26570E-06-6.27815E-06
 -1      1980-3.92106E-05 2.79094E-05 1.16599E-06-4.01162E-05-6.03062E-07 1.50259E-05
 -1      1981 1.55140E-07 7.11368E-07 8.95946E-09-1.16785E-06-1.65694E-06 8.62700E-07
 -1      1982-9.50171E-08 5.58154E-08 3.83579E-08 3.92320E-07-1.54960E-07 5.13564E-08
 -1      1983-2.85805E-06 5.72093E-07 6.00136E-07-8.93486E-07 4.74764E-07 5.61580E-07
 -1      1984-4.52533E-06 4.44178E-06-1.87528E-05 1.23132E-05 3.48949E-06 5.32419E-06
 -1      1985 4.56117E-07-2.92893E-06 5.39105E-06-5.77925E-06-2.65260E-06-1.80685E-06
 -1      1986 4.66892E-09 2.41295E-09-1.60862E-09-9.75770E-08-3.61195E-08-4.01862E-08
 -1      1987-4.03967E-07 7.39420E-08 2.55479E-10-4.10947E-09 9.17259E-09 1.01307E-08
 -1      1988-5.28177E-07 1.39794E-07 1.74044E-07-9.52118E-08 2.88468E-08 1.16542E-07
 -1      1989-3.29145E-06 1.09321E-06 8.61246E-07 6.36240E-08 8.75085E-08-2.18309E-08
 -1      1990-3.09319E-06 9.81598E-07 8.25855E-07 1.35822E-08 1.97549E-08-1.93577E-07
 -1      1991-1.60445E-06-3.59784E-06 1.41245E-06 1.33751E-06 3.04605E-06 2.65739E-06
 -1      1992-6.75665E-07 9.25983E-07-9.19522E-08-9.20456E-07 1.21514E-08 5.69921E-09
 -1      1993 4.09162E-07 1.00846E-07-2.19141E-07-4.07833E-07 1.07869E-07 1.14241E-07
 -1      1994-7.89874E-07 2.83987E-06-7.66390E-07-7.84942E-07 2.00894E-07-4.96938E-08
 -1      1995-3.50112E-07 8.97404E-07-1.40959E-07 4.96190E-07 3.64955E-07 5.72293E-08
 -1      1996 3.07950E-07-9.51189E-07 2.14251E-07-1.43000E-09-1.83648E-08 4.89588E-08
 -1      1997 2.57740E-07-1.02770E-07-3.07935E-07-1.09238E-07-2.44615E-08 7.65372E-08
 -1      1998 6.31322E-07-8.07764E-08-2.76984E-07-4.23695E-07-5.63614E-08 2.21844E-07
 -1      1999-1.30699E-06 4.61659E-07 3.53764E-07 2.46318E-07-9.64466E-08-1.45588E-07
 -1      2000 8.29907E-07-3.63838E-07-2.26946E-07-6.86438E-08-1.52456E-08 2.00934E-08
 -1      2001 9.57948E-07-2.94827E-07-3.09043E-07-1.02537E-07 8.06092E-08 1.13039E-07
 -1      2002 6.14618E-07-1.63599E-07-2.05806E-07-1.30449E-07 2.00490E-08 9.94156E-08
 -1      2003 2.23946E-06-5.78011E-07-7.38651E-07-3.28920E-07-3.07650E-08-1.66896E-07
 -1      2004 1.65276E-06-4.28821E-07-4.84225E-07 4.26372E-08-1.24695E-07-6.39747E-08
 -1      2005 2.65544E-06-9.64159E-07-7.57637E-07 1.97434E-08 8.67740E-08-2.46269E-08
 -1      2006 1.89991E-06-6.65143E-07-5.19799E-07-2.90503E-07 2.66185E-08 1.41984E-07
 -1      2007 6.59560E-08-6.07432E-08-4.89215E-09-3.68740E-08-4.93372E-09-3.85916E-08
 -1      2008 1.54903E-07-1.09561E-07 7.60569E-09 2.05096E-08 5.99140E-09-2.83641E-09
 -1      2009 2.24396E-08-9.81871E-08 6.05869E-08-1.55378E-07-1.99071E-09-1.60728E-08
 -1      2010 1.43985E-06 3.10284E-06-4.37518E-06-3.60038E-06-4.56695E-07 3.30637E-06
 -1      2011-1.50675E-07 3.09185E-07-6.14630E-08-5.64544E-08 1.40949E-08-4.67805E-09
 -1      2012-1.15944E-08-4.48830E-08 4.43240E-08 5.67274E-08 4.56556E-08 1.06013E-08
 -1      2013 5.18977E-08-1.15061E-07 8.80758E-08-7.05104E-09-2.20467E-08 7.17887E-10
 -1      2014-6.45010E-08-6.69772E-08 1.54346E-07 9.73488E-09 9.33659E-08 5.41797E-08
 -1      2015-2.12722E-06 5.06160E-07 6.38141E-07 7.61819E-08-9.49549E-08 1.06706E-07
 -1      2016-2.13324E-06 7.45154E-07 5.50312E-07 2.48606E-07 4.29953E-08-1.59113E-07
 -1      2017-5.88241E-07 2.98519E-06-8.61663E-07-7.89681E-07-1.92980E-07-1.14354E-07
 -1      2018-7.23489E-07-5.64229E-07 5.39741E-07-8.30937E-07-2.01184E-07-1.21667E-07
 -1      2019-7.62973E-07 7.78706E-08 2.78487E-07-4.75153E-07 2.80907E-08-7.90811E-08
 -1      2020 2.95480E-06-3.02170E-06 3.37408E-07 3.15639E-07-5.75801E-07-4.31135E-07
 -1      2021 4.82039E-06-1.34250E-06-1.48460E-06-2.35778E-08 1.93916E-07-4.75348E-08
 -1      2022 4.71485E-06-1.18628E-06-1.49756E-06 2.77838E-07 5.98155E-08-1.09933E-07
 -1      2023-1.41422E-06 1.15407E-05-4.32207E-06-3.39768E-06-1.15936E-06 8.12135E-07
 -1      2024 6.73600E-06 3.59471E-06-5.12201E-06 1.37352E-06-7.19145E-06-1.05761E-06
 -1      2025 1.64437E-06 7.85189E-06-6.35637E-06-1.22775E-06-1.12806E-06-1.39715E-06
 -1      2026 1.18492E-07 4.78044E-08-7.25832E-08-6.92544E-08-1.65065E-08-5.28768E-08
 -1      2027 9.35262E-08 2.49996E-08-9.07095E-08-3.69173E-08 7.09221E-09 7.15746E-08
 -1      2028 1.76735E-07-4.70037E-08-1.12313E-07 2.77260E-07-1.11668E-07 1.60179E-08
 -1      2029 6.27891E-08 1.60294E-08-7.98829E-08-3.53377E-08-7.38985E-09-6.60909E-08
 -1      2030 3.91944E-08 2.65159E-08-1.71934E-08-3.96461E-08 8.89100E-09 5.94797E-08
 -1      2031 8.41322E-10 1.40921E-08-2.12906E-08 6.30019E-09-9.46855E-09-7.91783E-09
 -1      2032-2.57717E-10-5.48870E-08 1.16097E-07 4.79482E-08-3.08850E-08 1.95141E-08
 -1      2033 3.88850E-08 2.43854E-09-8.55163E-08-2.26811E-09-2.28377E-09 6.51833E-08
 -1      2034 9.15725E-07-2.98195E-07-3.13807E-07-2.78960E-07-9.19198E-08-1.71126E-07
 -1      2035 9.38760E-07-3.48559E-07-2.67381E-07 2.99105E-08-7.64661E-08 5.76930E-08
 -1      2036 1.22700E-06-3.89122E-07-3.44529E-07-1.74437E-08 4.26154E-08 1.58130E-08
 -1      2037 6.20566E-06 1.76358E-07-2.30091E-06 7.60463E-07-2.01530E-07-9.95071E-08
 -1      2038 3.97029E-06 5.96596E-08-2.69753E-06 2.30637E-06 1.38091E-06-8.60421E-07
 -1      2039 6.63688E-06-1.09029E-06-1.47299E-06 1.95035E-06-1.67320E-06-6.23264E-07
 -1      2040 5.11079E-07 2.77107E-08-1.26779E-07-4.30603E-09-1.04582E-07-5.50958E-08
 -1      2041 4.40488E-07-7.74217E-07-1.27557E-07-1.84178E-08-2.74312E-07-1.04462E-08
 -1      2042 4.96254E-07-9.12258E-08-1.41700E-07-5.26714E-08 1.77558E-08-6.49120E-08
 -1      2043 4.31852E-07-2.29986E-07-1.05450E-07-2.75838E-08 1.12631E-07-2.80944E-08
 -1      2044 2.83206E-06-8.46282E-07-8.53295E-07-2.73571E-07-3.62335E-08 5.47824E-08
 -1      2045 3.82982E-08 5.24509E-07-9.95252E-09 3.72444E-08-3.46807E-08 2.13039E-09
 -1      2046-1.80143E-06 5.78594E-07 4.22324E-07 2.06984E-07-1.44269E-08 1.55653E-07
 -1      2047 1.20132E-06-3.91839E-07-3.65406E-07-7.33636E-08 9.24134E-09 1.29279E-08
 -1      2048 5.19349E-06-6.37996E-06 9.47935E-07-4.36183E-06-3.59315E-07-1.88196E-07
 -1      2049 5.23148E-06-2.39124E-06 2.41647E-07-8.07717E-07-2.07967E-06 1.41027E-06
 -1      2050 1.44110E-06-4.28529E-07-4.39437E-07-1.47480E-07-1.62800E-09-1.16551E-07
 -1      2051 5.23055E-07 1.36261E-07-2.29848E-07-2.77039E-07 2.34321E-07-1.19173E-07
 -1      2052 3.93665E-09-1.96596E-10-5.42701E-09-1.39914E-09 1.09864E-09 1.51766E-09
 -1      2053 2.89294E-08-1.06775E-09-2.55316E-08 9.49627E-09 3.97025E-09-2.19880E-08
 -1      2054 5.05209E-06-8.73464E-07-1.72947E-06 4.70250E-08-9.32509E-08 7.67247E-08
 -1      2055 1.39569E-05-5.41608E-06 2.18952E-06-6.33154E-06 3.38116E-06-1.19595E-06
 -1      2056 9.75375E-06-1.03099E-05 5.56274E-06-1.04912E-05-2.87063E-06-1.01751E-05
 -1      2057 9.23435E-07-5.77232E-08-2.33916E-07 3.04044E-07-1.61868E-07-5.37747E-08
 -1      2058 8.39665E-07-1.52821E-07-1.84720E-07 5.50274E-07-2.28348E-07-3.67314E-08
 -1      2059 6.08928E-07-2.24740E-07-5.87524E-08 6.00768E-08-1.06565E-07 4.32384E-08
 -1      2060-1.80026E-07-2.23119E-07 1.75184E-07-3.94760E-07-2.51426E-08 7.21621E-08
 -1      2061-1.46038E-07-3.83848E-07 2.43025E-07-4.49649E-07-1.72672E-07-4.98132E-08
 -1      2062-4.95012E-07 2.05900E-08 1.40468E-07-3.16943E-07 1.50438E-07 8.67497E-09
 -1      2063 6.08282E-07-6.03671E-08-2.18605E-07-2.04441E-07 1.96762E-09-8.79971E-10
 -1      2064-2.95369E-06 4.03833E-07 8.97767E-07-2.55298E-07-2.83237E-07 2.13421E-07
 -1      2065-2.35114E-07-6.71129E-07 1.07044E-07-2.74675E-07-3.87763E-07 1.77834E-07
 -1      2066 6.02252E-08 9.23910E-07-6.21431E-08-2.87932E-07 5.85113E-07 8.19824E-08
 -1      2067-6.94386E-08-1.53304E-08 3.53770E-08 3.08155E-08-1.94876E-08-2.36414E-08
 -1      2068 1.54813E-07 1.14528E-07-3.33909E-07 1.01571E-07-1.15439E-07-8.56052E-09
 -1      2069 1.66760E-07 2.14607E-07-3.61090E-07 2.47023E-07-7.81910E-09-1.01730E-07
 -1      2070-1.66189E-07 4.78170E-07-1.08361E-07 3.87011E-07 2.16121E-07 4.35811E-08
 -1      2071 4.75109E-07-1.13624E-06 2.66675E-07 3.73165E-08 1.01043E-08-6.85660E-08
 -1      2072 3.68724E-06 1.40065E-06-1.81163E-06 3.69582E-06-6.43277E-07 1.54403E-06
 -1      2073 5.90382E-06 4.95148E-07-2.57165E-06 6.04349E-07 8.28322E-07 8.84503E-07
 -1      2074 6.62475E-06-2.18420E-06 9.44971E-07 1.50302E-06 4.89614E-06 2.48500E-06
 -1      2075 1.91775E-06-4.01543E-07-7.99926E-07-2.50066E-08-3.35254E-08 1.00568E-07
 -1      2076-2.63916E-06 7.26204E-07 7.73168E-07-2.16324E-08-1.14632E-07 1.87735E-08
 -1      2077-2.49015E-06 8.38442E-07 6.04634E-07 1.90122E-07 5.41985E-08-9.52069E-08
 -1      2078 3.44190E-06-1.51906E-06-9.94932E-07 4.47329E-08 8.84436E-08 1.11531E-07
 -1      2079 3.55903E-06-1.34790E-06-9.48382E-07-2.81453E-07-2.58411E-07 1.57119E-07
 -1      2080-4.14163E-07 1.34762E-06-3.82043E-07 8.19035E-09 5.11068E-08 9.96971E-09
 -1      2081-4.27810E-07 1.40867E-06-4.10108E-07 1.22168E-08 1.45803E-08-6.11687E-09
 -1      2082 3.84748E-07-3.26817E-07 2.98312E-09 5.72694E-07-1.44385E-08-1.27079E-08
 -1      2083 3.51120E-06-1.10410E-06-1.03222E-06-5.28564E-09 9.47534E-09-2.56276E-08
 -1      2084-8.46901E-07 2.18600E-07 2.78301E-07 2.95111E-08 4.01601E-08 6.65663E-09
 -1      2085 6.98928E-08-1.04851E-08-2.36777E-08-7.45288E-09-4.83441E-08 7.54344E-09
 -1      2086-1.87183E-07 2.67518E-08 8.73509E-08-2.52724E-07-8.00581E-08-1.75160E-07
 -1      2087 7.38631E-07-2.79760E-07-1.71481E-07 2.86183E-07 5.00436E-08-7.81025E-08
 -1      2088-3.50435E-06 1.16514E-06 8.66717E-07 2.74780E-07 2.48876E-07-2.11498E-07
 -1      2089-3.22306E-06 5.74839E-07 1.42914E-06 4.08554E-08-8.32241E-08-8.07509E-09
 -1      2090 3.63367E-06-1.09296E-06-1.04459E-06 2.54221E-07-1.27040E-07-2.45949E-07
 -1      2091 5.64835E-07-1.15230E-07-2.16186E-07-5.65737E-07 1.16587E-08 6.33502E-08
 -1      2092 1.48361E-06-5.10536E-07-3.95320E-07-2.80262E-07-1.13964E-07-3.61353E-08
 -1      2093 2.05957E-07-9.36638E-09-6.50823E-08-1.23670E-07-6.07783E-09-1.97948E-07
 -1      2094 7.82348E-06-5.76927E-06-1.77559E-06-1.54705E-07 6.14110E-07-2.12481E-07
 -1      2095 5.92376E-06 2.12905E-07-1.86545E-06 4.04185E-08-4.61027E-08 1.07015E-07
 -1      2096-9.30526E-08-4.15010E-08 8.56159E-08-2.58694E-07 8.07368E-08-2.31772E-08
 -1      2097 1.85695E-08-2.96923E-09 2.29372E-08-4.82568E-10 2.96858E-08 1.13279E-08
 -1      2098-1.16972E-05 7.28537E-05-3.35560E-05-2.36293E-06-2.43220E-06-5.97630E-06
 -1      2099 1.35505E-05-4.69994E-05 2.21297E-05 6.14109E-06 2.31128E-06 3.68796E-06
 -1      2100-1.91674E-05 7.57731E-05-3.50369E-05 3.91437E-06-3.46552E-06 2.52179E-06
 -1      2101-2.53413E-06 7.78009E-07 6.48625E-07-3.83175E-07 8.88602E-08-2.66946E-07
 -1      2102 4.30557E-06-1.28005E-06-1.29551E-06-3.50575E-07-5.79547E-08 8.77583E-08
 -1      2103-3.23565E-06 8.57088E-07 9.49952E-07 8.27553E-09-4.41973E-08 4.36756E-10
 -1      2104 7.82891E-07-1.22281E-07-2.84852E-07-1.34572E-07 4.65900E-08 2.12871E-08
 -1      2105 3.65948E-08-4.63692E-08 3.36280E-08 1.11019E-08 1.16704E-07 2.44610E-08
 -1      2106 5.44206E-06-6.65110E-06-5.08321E-07 2.50696E-06 1.92528E-06-8.70875E-07
 -1      2107 4.98455E-06-4.42601E-06-9.70387E-07-1.50254E-05-9.64288E-07-8.33454E-07
 -1      2108-2.32464E-06 1.89717E-06 2.69481E-06-1.93813E-05 1.30400E-06-3.88400E-06
 -1      2109 4.31644E-06-1.36816E-06-1.26378E-06 3.80074E-08 1.00425E-08 9.70272E-09
 -1      2110 4.78479E-06-1.52440E-06-1.38698E-06-4.17308E-07 2.57823E-08-2.07406E-07
 -1      2111-5.87409E-06 1.95953E-05 3.17453E-06-7.91041E-06 1.49009E-05-7.68014E-08
 -1      2112-1.64242E-06 6.15027E-07 4.06798E-07-4.53575E-07-7.39963E-09 1.97571E-07
 -1      2113 1.06160E-06-3.99912E-07-2.89199E-07-6.26735E-08-3.13499E-09 2.86538E-08
 -1      2114 1.31515E-06-6.33850E-07-2.87686E-07 9.02108E-07-2.84116E-08 1.29127E-07
 -1      2115-1.65169E-08 4.69655E-09-1.91939E-08-3.24114E-09-3.28075E-09 5.57261E-09
 -1      2116 9.55867E-06-7.81831E-06-6.49843E-06-1.80580E-06 4.45245E-07 2.98813E-07
 -1      2117-2.55546E-06 8.93230E-07 6.11320E-07 2.34297E-07 1.06396E-08 2.17681E-07
 -1      2118-1.29304E-05 9.98908E-06-2.48862E-06-2.50712E-06-2.30287E-06-1.28357E-05
 -1      2119 1.40036E-05-7.29415E-06-7.92016E-07 9.33192E-07-3.57540E-06 1.87093E-07
 -1      2120 4.95291E-06 2.37786E-07-3.34187E-06-2.88195E-06-6.63181E-07-4.89424E-07
 -1      2121 1.35948E-06-8.49659E-07 1.52887E-06 3.91611E-07-9.11946E-07-2.29530E-07
 -1      2122-3.84341E-06 1.54718E-06-3.21052E-07 6.21056E-07 1.16059E-06 2.32152E-07
 -1      2123 4.46306E-07-5.69698E-08-2.40873E-07 2.85038E-07-2.14034E-08 2.25930E-07
 -1      2124 1.12487E-08-1.78509E-08 1.25463E-08 2.50652E-08-7.36074E-10-2.67846E-10
 -1      2125 4.71148E-10 1.42136E-08-2.33769E-08 3.08814E-08-1.10246E-09 6.07685E-09
 -1      2126 1.06322E-08-1.08672E-10-1.25484E-08 2.64791E-08-1.07734E-08 3.96158E-08
 -1      2127 4.03678E-06-1.21017E-06-1.20503E-06 4.41430E-08-1.19564E-08 2.39429E-08
 -1      2128 4.39211E-06-9.97642E-07-1.44401E-06 1.84308E-07-8.46650E-08 1.24265E-07
 -1      2129 4.38263E-06-1.12951E-06-1.32339E-06-5.48055E-08-1.06361E-07-1.19067E-08
 -1      2130 2.15570E-06-7.19999E-07-6.06481E-07-4.65159E-07-9.45414E-09-2.13428E-07
 -1      2131-7.30547E-08 2.56266E-07-8.18166E-08-6.93379E-07 7.73605E-10-7.67650E-08
 -1      2132 3.13235E-06-9.89881E-07-8.54464E-07-2.68707E-07 1.46513E-07-1.58120E-07
 -1      2133-1.78664E-05 1.77247E-05-4.79200E-06-3.86714E-07 3.50716E-06-1.06896E-05
 -1      2134 7.73608E-07-2.16515E-07-8.62883E-08 1.97098E-07 1.03976E-07-2.24425E-08
 -1      2135 9.80042E-07-3.64378E-07-2.28970E-07 2.82861E-07-1.25537E-08 6.75112E-08
 -1      2136-4.86841E-05 5.42981E-05-7.94431E-06 2.25417E-05 6.16534E-06-7.56263E-07
 -1      2137 4.46147E-07-8.39431E-08-1.61038E-07-4.95212E-07-1.96376E-09 4.20443E-08
 -1      2138 5.60581E-07-1.45485E-07-1.45842E-07-3.44724E-07-1.77420E-07-3.59457E-07
 -1      2139 1.31117E-06 1.89438E-07-4.61940E-07-4.07279E-07 3.49759E-07 1.95108E-07
 -1      2140 1.15746E-06-3.82183E-07-3.21892E-07 2.04215E-07-3.68624E-08 5.14686E-08
 -1      2141 7.14999E-07-2.71999E-07-1.87730E-07-1.04421E-07-2.01620E-08-1.02196E-07
 -1      2142 8.62517E-07-5.14404E-07-2.51113E-07-6.90695E-08 6.69756E-08-3.19973E-08
 -1      2143 6.39356E-07-2.04301E-07-1.89875E-07 4.94003E-09-5.37252E-08-3.13531E-08
 -1      2144 2.11480E-07-6.65479E-08-1.38213E-07-5.18550E-07-2.08261E-07 3.23689E-07
 -1      2145-9.72712E-06 6.91890E-06 4.23695E-06 2.47731E-06 1.25546E-06 1.01363E-05
 -1      2146-9.07383E-06 1.60975E-05-3.90615E-06 1.25891E-05 3.77765E-06 9.47626E-06
 -1      2147 1.99239E-07-7.28495E-07 2.13142E-07-8.47927E-08 5.56515E-08 1.32702E-08
 -1      2148 1.79866E-07-5.14412E-07 1.43556E-07-1.66133E-07 1.05313E-07 5.55592E-08
 -1      2149 2.58598E-07-5.89259E-07 1.75348E-07 8.49245E-08 2.84646E-08-3.04427E-08
 -1      2150 3.84212E-07-1.76672E-06 5.04048E-07 8.45095E-07 6.39025E-07-5.28629E-08
 -1      2151 1.02284E-06-2.88404E-06 6.11084E-07 8.56456E-08 9.17588E-08-1.27743E-08
 -1      2152 4.80121E-06-1.93492E-06-1.40129E-06 7.84157E-08 1.57025E-07 4.80912E-08
 -1      2153-1.36862E-06 1.50673E-07 4.85912E-07-4.14306E-08-3.58633E-07 4.63994E-08
 -1      2154 2.50281E-06-7.90303E-07-7.20880E-07-8.16758E-09 4.68456E-08-5.29926E-08
 -1      2155 7.21843E-09 4.29247E-10-1.04740E-08-4.91061E-09-1.63301E-09-2.45894E-09
 -1      2156 2.12642E-06-6.79140E-07-6.03315E-07 2.23794E-07-5.43997E-08 2.29810E-07
 -1      2157 3.52304E-08-1.63110E-09-2.80265E-08 1.30336E-08-7.81638E-09 3.12994E-08
 -1      2158 9.83327E-09 1.39235E-09 8.57148E-10 8.37386E-09 1.66502E-08-4.22880E-08
 -1      2159-3.34528E-05 1.09419E-05-6.80891E-06-6.53515E-05 4.23271E-06-1.03337E-05
 -1      2160 5.21367E-06-1.29594E-05-1.44515E-06-5.67223E-05 5.86264E-07-4.93355E-06
 -1      2161-1.59985E-06-4.00777E-07 5.28750E-07-1.56721E-06-1.25594E-07 1.29276E-08
 -1      2162 1.03814E-06-2.90218E-07-2.17085E-07 3.15620E-07 7.61965E-08 1.27835E-08
 -1      2163-6.27185E-07 2.05225E-07 7.75521E-08 2.60554E-07 1.69647E-07-1.60333E-07
 -1      2164-3.30497E-06 1.04872E-06 8.92918E-07 5.05713E-07 4.15149E-08 3.25050E-07
 -1      2165 1.38668E-06-4.57774E-07-4.29567E-07-1.09719E-07 1.70810E-08 7.52136E-08
 -1      2166 3.83258E-07-5.38411E-08-1.47806E-07-6.53492E-07 4.09417E-09 7.98997E-08
 -1      2167 3.47083E-06-1.01569E-06-1.00433E-06-3.40808E-07-1.30918E-07 2.10601E-07
 -1      2168 1.47305E-07-8.33174E-07 4.30540E-07-3.97754E-08 9.61389E-10-1.32579E-07
 -1      2169-1.49809E-06 5.24137E-07 4.16202E-07 2.45692E-07-1.20065E-09 1.48246E-07
 -1      2170-1.07216E-07 8.21979E-08-3.15114E-08-6.73148E-07 1.92957E-07 1.51808E-07
 -1      2171-6.01907E-08-6.57104E-09 3.45142E-08-5.14211E-07 3.45026E-07 4.53011E-08
 -1      2172 8.53966E-08-2.12180E-07 4.91173E-09-1.13726E-07-4.15473E-08-2.09578E-08
 -1      2173 9.59898E-08-4.00959E-08-1.05032E-08-2.47398E-07-3.64541E-08 2.52160E-08
 -1      2174-3.10645E-07 4.61323E-07-6.27747E-08-3.69093E-07 6.29944E-08 1.95200E-09
 -1      2175-7.03602E-08 2.23318E-08-8.01311E-09-3.54821E-07 1.49353E-07 3.42224E-08
 -1      2176-4.30211E-06 2.58750E-06 1.06362E-06-8.48765E-07-2.14972E-07 6.48601E-07
 -1      2177-1.52902E-06 4.27364E-07 4.47464E-07-5.05919E-08-6.85963E-08-4.27395E-08
 -1      2178 9.09625E-06 2.01678E-05-4.42346E-06 2.33787E-05 6.70390E-06-4.83993E-07
 -1      2179-3.83145E-06 1.59253E-06 9.38838E-08 2.48656E-08-2.50494E-07-4.29584E-07
 -1      2180 2.69525E-06 4.60752E-06-2.79517E-06 2.18632E-06 1.05096E-06-3.29349E-07
 -1      2181 5.92736E-06-9.54246E-06 2.03599E-05 1.46020E-05 7.41296E-06-7.58853E-06
 -1      2182-1.15713E-05 6.31196E-06 4.98100E-06 2.21373E-06-7.70796E-07 1.38513E-05
 -1      2183-5.60042E-07 3.70384E-06-4.45378E-06-2.92552E-06 4.28456E-07-4.04733E-06
 -1      2184 2.80495E-06-1.71600E-06-3.68144E-07-1.82005E-08-1.59219E-06-2.08706E-06
 -1      2185 8.13884E-05-2.30687E-04 4.86138E-05-1.21646E-06-9.44987E-08-1.90311E-06
 -1      2186-7.23737E-05 2.26234E-04-5.03798E-05 1.20209E-06-1.26022E-06-3.49258E-06
 -1      2187-7.23100E-07-3.76220E-07 1.60817E-06 1.62497E-06-8.68974E-08-2.21066E-07
 -1      2188 3.43456E-07-9.55437E-07 8.64775E-08-4.45010E-06 2.03088E-07-3.16014E-06
 -1      2189-9.03340E-06 2.47736E-06-1.72689E-06 1.15650E-06 7.49720E-08 3.68586E-06
 -1      2190 2.63689E-06 5.65845E-06-1.94607E-06-2.95397E-07 1.20403E-07-1.37235E-07
 -1      2191 1.88333E-05 1.38974E-05-9.25573E-06 9.05770E-06-5.08685E-06-8.96166E-07
 -1      2192-9.23825E-08 2.69330E-07-8.83417E-08-4.39331E-08-1.28490E-07-1.96245E-07
 -1      2193 1.57511E-06-4.70739E-07-5.34385E-07 3.59680E-07 8.78419E-08 2.78175E-08
 -1      2194-9.05924E-06 5.32338E-07 4.69594E-06 1.05994E-05 1.48449E-06 8.83746E-06
 -1      2195 6.89349E-06 2.86730E-06-2.70357E-06-2.49362E-07-5.61369E-06 1.94639E-07
 -1      2196 3.24558E-08-4.43150E-07 2.28612E-07-1.98078E-08 7.98905E-08 3.08649E-09
 -1      2197 4.53347E-06-1.79134E-06-5.29672E-07 4.00150E-07-4.84051E-08 3.00787E-07
 -1      2198 2.54895E-05-8.24688E-05 4.01303E-05 7.10199E-06 4.79437E-06 7.29716E-07
 -1      2199 1.80679E-05-7.92608E-05 3.77661E-05-5.66494E-06 6.62110E-06 7.03390E-07
 -1      2200 2.71525E-05-8.24833E-05 3.81701E-05 3.46874E-06 6.95786E-06-1.75037E-06
 -1      2201 1.22898E-06-3.38942E-07-4.56368E-07 3.44645E-07-6.21533E-08-2.22932E-07
 -1      2202-1.49498E-06 3.35385E-07 4.85333E-07-3.63159E-08 2.77397E-08 3.33149E-08
 -1      2203-8.92354E-07 2.34183E-07 2.43366E-07-5.13117E-08 2.38340E-08-2.41736E-08
 -1      2204-1.64539E-06 5.33052E-07 4.58542E-07 1.57619E-07 5.18887E-08-7.38970E-08
 -1      2205 1.03897E-06-6.34528E-08-3.71418E-07 7.47167E-08-1.73114E-07-9.68350E-08
 -1      2206 9.43360E-07-1.11175E-06-2.77265E-07-1.30122E-08-4.01117E-07-1.35454E-08
 -1      2207-5.22923E-08-3.99136E-07 1.33193E-07-1.75441E-07 7.71912E-09 5.77341E-08
 -1      2208-6.10497E-07 1.13984E-07-2.57725E-08-1.11206E-07-5.19649E-09-2.72508E-11
 -1      2209 1.99625E-06 1.98660E-06-5.24875E-06-6.71888E-06-2.65331E-06 7.54218E-08
 -1      2210 1.44457E-06-4.31613E-07-4.29492E-07 3.56533E-07 6.12660E-08 4.44690E-08
 -1      2211-2.87156E-06 1.09800E-06 5.74247E-07 2.84494E-07 2.32886E-08-1.43361E-07
 -1      2212 1.64094E-06-3.65764E-07-5.00854E-07 3.00247E-07-2.33792E-07 1.00220E-08
 -1      2213 2.86245E-08-1.87703E-09-8.86368E-09 1.70630E-09 3.05546E-10-6.66641E-10
 -1      2214 1.09348E-07-6.39114E-08-1.31320E-08-9.81676E-08 3.11133E-09-1.31461E-08
 -1      2215 3.37838E-06-1.06112E-06-9.54637E-07 1.57732E-08-7.91601E-08-3.43967E-08
 -1      2216 1.94795E-06-1.35427E-06-5.63255E-07-1.21335E-07 1.56607E-07 4.84938E-08
 -1      2217 1.14330E-06-3.27376E-07-3.21347E-07 2.10798E-07-5.75761E-09-1.99341E-08
 -1      2218 2.78127E-09 1.42383E-09-3.71676E-10-1.41064E-09 2.68915E-10 1.74500E-09
 -1      2219-2.82076E-06 1.37586E-05-6.06718E-06-3.11483E-06-1.26878E-06 2.51089E-07
 -1      2220 7.83262E-06-1.62170E-05 6.93429E-06 4.19825E-07 8.27774E-07 5.28797E-06
 -1      2221-1.33715E-05 5.31645E-05-2.71240E-05 1.87448E-07-3.73370E-06 2.07007E-06
 -1      2222-5.22845E-06-3.57438E-06 4.96987E-07 3.07791E-06 3.57501E-07 8.45058E-07
 -1      2223-1.06868E-05 6.69916E-05-3.35315E-05 4.73074E-06-3.61626E-06-2.46450E-06
 -1      2224 1.13798E-07 3.27356E-05-2.17407E-05 1.44827E-07-1.87957E-06-1.07949E-07
 -1      2225 3.25163E-07 8.78403E-08-1.30690E-07 4.10854E-07-3.76309E-07-1.62035E-07
 -1      2226-3.17467E-06 8.31335E-07 1.00723E-06-6.64047E-08 1.48132E-07 6.91228E-08
 -1      2227 2.13016E-06-5.55259E-07-6.37838E-07-1.39290E-08-4.90957E-08 3.09019E-08
 -1      2228-1.96504E-07 6.30163E-07 1.47495E-06 8.28925E-07-1.06351E-09 8.68667E-07
 -1      2229 4.22041E-06 4.80056E-07-3.81872E-06 3.16019E-06 1.53530E-07 2.19929E-06
 -1      2230-1.15669E-07 5.42580E-06-3.31044E-06 2.45442E-07-5.45282E-07 3.34542E-07
 -1      2231 1.14223E-06-2.85717E-07-3.92234E-07-6.85248E-08 3.84092E-08-9.85677E-09
 -1      2232-8.74753E-09-7.40382E-09 4.81503E-09 1.70143E-08-1.20884E-09 1.96563E-08
 -1      2233-2.43278E-06 7.54594E-07 7.00650E-07 3.32386E-08 3.62181E-10-5.45929E-08
 -1      2234 4.71943E-06-1.32911E-06-1.44084E-06 2.56571E-08-7.89109E-08 1.10058E-08
 -1      2235 2.69320E-08-2.17226E-10-1.19728E-08-3.52745E-09-1.01266E-09-6.74261E-09
 -1      2236 3.35368E-09-5.78325E-12-2.40962E-09-9.85771E-11-2.36140E-10 2.47365E-09
 -1      2237 2.31550E-08-8.21257E-09 2.09182E-09-1.61959E-08-3.68617E-09 5.33402E-09
 -1      2238 3.56967E-08-8.47817E-09-1.56115E-08-3.72681E-09-2.74904E-09 2.28510E-09
 -1      2239 2.17015E-08-1.47040E-08-3.28940E-09-4.64134E-09-1.01855E-09 2.80011E-09
 -1      2240-2.70060E-06 4.12482E-06-1.71246E-06-8.18400E-07-5.01188E-08-1.65590E-06
 -1      2241-5.87749E-07-8.42841E-08 9.53352E-08-2.06467E-07-4.70072E-08 3.76667E-07
 -1      2242-1.78991E-05-3.28414E-05 2.88257E-05 1.75695E-05 5.43117E-06 4.55933E-06
 -1      2243 1.16472E-05 2.89546E-05-2.26380E-05-9.04297E-06 1.53548E-06 6.43974E-06
 -1      2244 7.86736E-07-4.26541E-07 1.13784E-07 5.07363E-07-1.02046E-07-3.44494E-08
 -1      2245 3.58449E-05-8.15530E-05 3.26317E-05-3.76946E-06 2.76957E-06-5.32068E-06
 -1      2246 1.41653E-05-1.15990E-05 1.06006E-06-1.24537E-06-6.12769E-08-6.02218E-06
 -1      2247-1.88323E-06-5.31434E-07 5.83652E-07-2.67718E-07-2.81669E-07 9.98552E-07
 -1      2248 2.39504E-05-7.33148E-05 3.43998E-05-1.09221E-06 4.37363E-06 8.36854E-06
 -1      2249 1.37691E-05-9.64500E-06 2.05707E-06 7.57700E-07 6.12532E-07-7.38720E-07
 -1      2250-1.97885E-07-6.77811E-09 1.24430E-08 2.89527E-07-8.93382E-10 9.01300E-09
 -1      2251 2.24160E-06-4.96334E-07-4.45479E-09 2.46778E-07 3.48012E-08 5.84718E-08
 -1      2252-6.31452E-08 1.43549E-07-4.16409E-08-6.96653E-08 2.22944E-08 7.64191E-09
 -1      2253 5.00974E-06-1.56016E-06-1.42476E-06-1.71499E-08-1.55431E-08 2.85467E-08
 -1      2254 7.82024E-07-2.64795E-07-2.28654E-07-1.59309E-07-9.27469E-09 4.69988E-08
 -1      2255-7.89749E-07 2.85523E-06-6.98779E-07-2.35730E-07-7.18598E-08-1.39541E-07
 -1      2256 9.62300E-08-1.50169E-07 4.75681E-08 1.16180E-08-1.31504E-08 1.10387E-07
 -1      2257 2.13743E-05 8.38777E-06-4.52021E-06-3.91877E-05-3.07151E-06 1.00460E-05
 -1      2258 9.39598E-07 4.41801E-06-1.86831E-06-1.58262E-05 1.01710E-06 8.91929E-07
 -1      2259 5.19377E-06-1.38595E-05 1.36164E-06-1.85170E-05 2.98595E-06 4.62909E-06
 -1      2260-2.88040E-05 2.02945E-05 6.32605E-06-3.28918E-05-3.58031E-06 1.80941E-06
 -1      2261 6.03630E-07 1.03049E-05-8.99133E-06-4.40653E-07-7.67936E-06-5.03603E-06
 -1      2262 8.63444E-07-3.06040E-07-2.50153E-07-1.88312E-08-3.01011E-07-3.68216E-08
 -1      2263 2.97644E-06-6.91109E-07-8.75505E-07-7.26465E-08-3.68709E-08 8.96373E-09
 -1      2264-3.21962E-05 6.49869E-06 2.42078E-06-6.89851E-06 6.00915E-06-1.10049E-05
 -1      2265 3.19793E-06-2.90073E-06 9.12260E-07-1.11359E-05-6.13286E-07 1.24952E-06
 -1      2266 5.53122E-06-1.97824E-06-1.56690E-06 1.95581E-07-3.69915E-08-1.35976E-07
 -1      2267 5.63874E-06-1.74109E-06-1.74545E-06 8.22615E-08 1.60782E-07-1.65945E-07
 -1      2268 5.65706E-06-1.93436E-06-1.52323E-06 2.32311E-07-3.74423E-07-3.64229E-07
 -1      2269 4.44340E-06-1.25308E-06-1.41061E-06 2.22649E-07-3.71660E-08-2.29506E-07
 -1      2270 5.75251E-06-1.58239E-06-1.82940E-06-7.84316E-08-1.31603E-07-1.33519E-07
 -1      2271 2.34015E-07-4.64218E-09-1.85173E-07-1.48319E-08 3.42643E-08-2.51090E-08
 -1      2272-1.70172E-07-4.81207E-08 8.23816E-08 2.91092E-07 6.61413E-08-2.93737E-07
 -1      2273-2.05122E-06 6.25417E-07 5.88955E-07 1.92589E-07 2.22046E-08-8.74028E-08
 -1      2274-1.12164E-06 3.35926E-07 3.39957E-07 2.84850E-07 2.80079E-08-1.67680E-07
 -1      2275 3.03703E-08-6.61157E-09 5.36122E-09 3.68059E-10 4.16539E-09-6.43425E-09
 -1      2276-1.08419E-08-8.23807E-09 2.18190E-08 1.15416E-08 9.96547E-11-5.87418E-09
 -1      2277 2.07206E-06-1.17633E-06-9.12863E-07 8.27481E-07 5.13410E-07 4.72608E-07
 -1      2278 3.72379E-06-3.30049E-06-4.46983E-07-1.05369E-05-4.26293E-07-9.43402E-07
 -1      2279 3.27625E-06-8.35543E-07-3.35372E-07-3.38478E-06-2.25558E-07 2.68858E-06
 -1      2280-1.48845E-06 9.95678E-07 1.71754E-07-3.75487E-06-1.87806E-07 3.01378E-06
 -1      2281 4.01563E-08-3.80077E-09-1.90274E-08 5.78156E-09 2.75451E-09-7.84299E-09
 -1      2282 2.05923E-08-2.40179E-10-1.22917E-08 1.91486E-09 7.28958E-10-1.37834E-08
 -1      2283 3.00652E-08-8.48870E-10-1.53379E-08-1.64271E-08-1.82935E-09 4.53900E-09
 -1      2284 3.12771E-08-1.41918E-08-6.19084E-09-2.76630E-08 3.56277E-09-6.61075E-09
 -1      2285 1.11378E-08-4.50308E-08-1.62285E-10-1.76071E-08 7.91667E-09 9.24943E-09
 -1      2286 5.23917E-08-5.07648E-08-1.98369E-08-2.99380E-09-1.22400E-08 5.09268E-09
 -1      2287 2.14292E-08-3.92790E-08-1.19873E-08-1.35470E-08 7.30907E-09 3.15201E-09
 -1      2288-1.82435E-08-1.72989E-08 2.95439E-08-3.08991E-09 9.35165E-09 1.49474E-08
 -1      2289 4.18410E-08-1.81514E-09-2.07132E-08 1.88164E-09 2.44589E-09 4.63823E-09
 -1      2290 1.79972E-06-1.14144E-06-3.51183E-07 5.17107E-07 1.69632E-07 2.06297E-08
 -1      2291 9.72419E-09-7.30322E-09 8.66890E-09-2.56093E-09 1.43626E-09 4.17161E-09
 -1      2292 1.17990E-08-1.27290E-09-2.12528E-09-3.07277E-09 1.45462E-09 1.65468E-08
 -1      2293 9.89678E-07-3.95095E-07-5.41548E-08 3.64692E-07-2.47704E-07-1.69044E-07
 -1      2294-1.02514E-08-4.61889E-08 2.17245E-08 2.10492E-08 7.27889E-10-5.59910E-09
 -1      2295 3.04640E-06-9.08839E-07-9.03631E-07-4.96035E-07 7.26473E-08-2.92264E-07
 -1      2296 1.57216E-06-4.66665E-07-4.48505E-07-1.62355E-07 1.11978E-08-1.59002E-07
 -1      2297-3.40533E-05 1.16919E-04-3.53971E-05-5.89499E-06-8.00564E-07 5.30937E-06
 -1      2298-3.32760E-05 1.20867E-04-2.89976E-05 9.21801E-06-6.86799E-06 1.44267E-06
 -1      2299 3.17290E-05-1.18017E-04 3.45906E-05-2.52468E-06 1.76918E-06 4.15687E-06
 -1      2300-7.08206E-07-8.04126E-07 1.11039E-06 1.93718E-05-6.10498E-07-1.99092E-06
 -1      2301-6.74862E-07 1.54055E-07 2.71414E-07-3.27983E-07 1.04156E-08 3.00969E-07
 -1      2302-3.74225E-05 1.24939E-04-3.42597E-05-9.61518E-06-4.97608E-06 2.33570E-06
 -1      2303 4.01315E-06-1.28905E-06-1.10889E-06-5.14498E-07 1.01981E-08-3.16282E-07
 -1      2304 1.40253E-06-6.72944E-07-3.53706E-07-5.29619E-07 3.41311E-07 8.23512E-08
 -1      2305 4.85353E-07-1.34079E-07-2.04689E-07-1.06261E-07-4.83377E-11-3.88449E-08
 -1      2306 7.05506E-05-2.09427E-04 4.67658E-05 5.89818E-06-3.12374E-06 6.39993E-06
 -1      2307 6.41346E-05-1.99520E-04 4.69960E-05 9.31340E-06-2.75740E-06-4.61099E-06
 -1      2308 9.05641E-05-2.35830E-04 4.72853E-05-8.43168E-06-4.53205E-06-4.14084E-07
 -1      2309-3.38387E-06 4.15431E-06-2.57211E-07-8.26227E-06 5.05972E-07 1.65818E-07
 -1      2310 1.89379E-06-5.75467E-07-2.73883E-07 4.94615E-07 5.88443E-07-3.17860E-07
 -1      2311-2.14720E-06 4.02890E-08 2.73486E-07 3.85030E-07-9.90337E-07-4.28836E-07
 -1      2312-1.77178E-06 1.70437E-07 1.34520E-07-1.17127E-05-2.09989E-07 8.10027E-06
 -1      2313-3.54503E-05 1.18541E-04-4.33851E-05-7.60205E-06 2.72648E-06 2.24633E-06
 -1      2314-2.91884E-05 1.01982E-04-2.59402E-05-1.35754E-06 1.44632E-06 1.21098E-06
 -1      2315 1.60128E-06 2.41361E-07-1.87454E-07 2.62008E-06-3.31786E-07 6.02447E-07
 -1      2316-2.99584E-05 1.01782E-04-2.57825E-05-4.58826E-06 9.40372E-07-1.84437E-06
 -1      2317-9.00952E-05 2.81628E-04-7.16758E-05 3.76657E-06 5.42448E-06 2.88600E-06
 -1      2318-6.08800E-05 1.80410E-04-4.59229E-05 6.36357E-07 3.29326E-06 5.60765E-07
 -1      2319 6.61560E-06-4.69324E-05 1.98559E-05-6.34307E-06 1.49511E-06-6.09168E-06
 -1      2320-2.06413E-05 6.44697E-05-1.57732E-05-4.88983E-06 1.59250E-06-8.03157E-07
 -1      2321-5.54812E-05 1.64831E-04-4.19415E-05-6.36447E-07 2.41386E-06-6.72605E-08
 -1      2322-7.90444E-05 2.42739E-04-6.15525E-05 1.50992E-06 4.85175E-06 1.45260E-06
 -1      2323-4.26525E-06 9.91179E-07 6.34607E-07-1.39882E-06 5.11103E-08 1.09853E-06
 -1      2324 2.81329E-08-6.79048E-09-8.56832E-09-3.21011E-09-5.14825E-09-8.56934E-10
 -1      2325-1.02669E-08-1.47785E-08 3.08732E-09 6.31602E-09 6.95858E-09-4.47174E-09
 -1      2326 3.99227E-08-6.90605E-09-4.21277E-09-3.48413E-09 1.82425E-09-4.47580E-09
 -1      2327 3.72139E-08-3.42702E-09-1.74648E-08-9.63292E-10 2.07121E-09-4.65668E-09
 -1      2328-2.93913E-06 8.96258E-07 8.27765E-07-8.84666E-08-3.52425E-08-2.35605E-08
 -1      2329 9.34705E-05-2.65826E-04 4.57818E-05-4.42215E-06 1.39866E-05 7.21490E-06
 -1      2330-8.24239E-08-7.11609E-07 1.42328E-07 1.07484E-05 3.41486E-07-4.39778E-06
 -1      2331-8.04882E-05 2.34564E-04-4.65834E-05-3.77184E-06 4.78056E-06 9.75211E-07
 -1      2332 1.29442E-06-4.24871E-06 4.46642E-06-1.94267E-06 5.13043E-07 9.48488E-07
 -1      2333-4.08298E-06 2.98002E-06 1.61872E-06-2.70329E-06 1.66581E-06-1.31634E-06
 -1      2334 4.62878E-06-2.37852E-06-1.20627E-06-9.98011E-07 1.18333E-06 1.07791E-06
 -1      2335-7.13368E-05 2.04413E-04-4.52500E-05 3.36215E-06 3.36237E-06-6.58626E-06
 -1      2336-9.05762E-05 2.29661E-04-4.53104E-05-9.59068E-06 3.36380E-06-2.09038E-06
 -1      2337 5.24628E-07-1.49983E-07-1.53224E-07 1.30103E-08 8.99022E-09 5.12834E-08
 -1      2338 3.25486E-05-1.17797E-04 4.31006E-05-7.75473E-06-2.52189E-06 3.10942E-06
 -1      2339 1.06033E-06-1.25470E-06 8.54640E-07 1.65895E-05-4.60151E-07-8.27188E-07
 -1      2340-5.12872E-06 6.96637E-05-3.38437E-05 3.08333E-06-5.74703E-06 3.24506E-06
 -1      2341-5.33625E-06 1.50090E-05-6.47462E-06-1.17300E-06-2.92534E-07-3.67755E-06
 -1      2342-2.77930E-06 5.50214E-05-2.70947E-05 1.30041E-06-2.22358E-06-5.62171E-06
 -1      2343-9.34257E-05 2.64381E-04-4.54155E-05-3.33853E-06 1.39675E-05-5.62455E-06
 -1      2344 3.56597E-05-1.21804E-04 2.97556E-05 1.13988E-06 7.27567E-06 3.82816E-06
 -1      2345 4.75565E-09-1.22122E-08 2.59193E-09 3.59648E-10-7.32990E-10-2.88543E-09
 -1      2346 2.09294E-08-9.23451E-09 4.87407E-10 4.07106E-09 2.76844E-10 3.58757E-09
 -1      2347 7.77749E-05-2.50720E-04 6.33215E-05-1.99687E-06-5.07078E-06 4.91456E-07
 -1      2348 8.05632E-05-2.48075E-04 6.28476E-05 5.16154E-07-4.29308E-06-2.95073E-06
 -1      2349 2.13526E-05-6.90843E-05 1.71370E-05-2.45895E-06-1.62456E-06 4.07676E-07
 -1      2350 6.26101E-05-1.80883E-04 4.58819E-05-2.03584E-06-2.74862E-06-1.27985E-06
 -1      2351 7.45479E-05-2.45548E-04 6.09885E-05 3.06369E-06-4.36645E-06 1.38077E-06
 -1      2352 7.38589E-05-2.46360E-04 6.23795E-05-6.46892E-07-5.05375E-06-1.87407E-06
 -1      2353 3.37022E-05-1.22691E-04 3.68370E-05-8.77875E-06 3.52236E-06 5.46072E-06
 -1      2354 2.08069E-08-3.55775E-09-2.33502E-09-2.28261E-09 3.50601E-09 4.76407E-09
 -1      2355 1.03024E-08-1.72026E-08 1.49918E-09-4.53482E-10-5.97640E-10 1.29389E-09
 -1      2356-3.18272E-08 4.68784E-05-1.92436E-05 7.52548E-06-7.41625E-06 3.78906E-06
 -1      2357 5.48098E-06-3.63757E-05 1.69388E-05 1.57204E-06 2.93245E-06 1.59638E-07
 -1      2358 1.41651E-05-8.14152E-05 3.66559E-05-2.31769E-06 3.57181E-06-4.41525E-06
 -1      2359 1.68656E-06-6.77352E-06 3.56916E-06 7.22831E-07 9.72799E-07-1.35055E-06
 -1      2360-6.64176E-05 1.95756E-04-4.52533E-05 1.15841E-05 4.03026E-06 4.16930E-06
 -1      2361 1.87877E-06-2.50998E-06 6.61028E-07 1.39560E-05-3.45627E-07-3.12174E-06
 -1      2362-9.33755E-07-3.12104E-06 6.00962E-07 1.54524E-05 2.18836E-07 3.53023E-06
 -1      2363-8.80391E-05 2.82625E-04-7.21523E-05-3.12067E-06 2.77760E-06-2.31259E-06
 -1      2364-8.57244E-05 2.75993E-04-6.98302E-05 2.40634E-06 4.74340E-06 2.66060E-07
 -1      2365-9.14383E-05 2.80889E-04-7.09874E-05-1.22618E-06 5.54930E-06 4.90373E-07
 -1      2366-7.56538E-05 2.42101E-04-6.11867E-05-1.85597E-06 5.28193E-06-1.22423E-06
 -1      2367-4.40368E-09-5.70932E-09-5.48269E-10 4.94163E-10 2.29541E-09 3.33029E-09
 -1      2368-7.28262E-05 2.38484E-04-5.97704E-05 9.05225E-06 4.61730E-06-1.15265E-06
 -1      2369-2.81697E-05 1.07238E-04-2.71272E-05 5.78758E-06 2.19215E-06 8.87930E-07
 -1      2370-1.62758E-06 2.23718E-06 3.33813E-07-3.34240E-06-4.65100E-07-9.28522E-07
 -1      2371 3.00865E-05-1.14842E-04 2.88540E-05 4.96556E-07-2.49801E-06-1.38626E-07
 -1      2372-1.96656E-06-5.24958E-06 9.89760E-07-2.15107E-06-1.71889E-07-3.78365E-07
 -1      2373 2.22094E-05-6.97916E-05 1.71774E-05-2.21265E-06-1.48887E-06-2.86726E-07
 -1      2374-9.99873E-06 3.23908E-05-8.89488E-06-1.96750E-06-1.20654E-07 6.81522E-07
 -3
    1PSTEP                         4           1           1          
  100CL  101 1.000000000        2374                     0    1           1
 -4  ERROR       1    1
 -5  STR(%)      1    1    0    0
 -1         1 3.59849E+01
 -1         2 2.97662E+01
 -1         3 2.57423E+01
 -1         4 1.88527E+01
 -1         5 3.50941E+01
 -1         6 2.87409E+01
 -1         7 2.57423E+01
 -1         8 2.06217E+01
 -1         9 3.83106E+01
 -1        10 3.83106E+01
 -1        11 2.73748E+01
 -1        12 2.73748E+01
 -1        13 3.54657E+01
 -1        14 3.85259E+01
 -1        15 2.61919E+01
 -1        16 3.47113E+01
 -1        17 3.20292E+01
 -1        18 2.32550E+01
 -1        19 3.14902E+01
 -1        20 2.44974E+01
 -1        21 3.26514E+01
 -1        22 3.24211E+01
 -1        23 3.59849E+01
 -1        24 3.05894E+01
 -1        25 2.96879E+01
 -1        26 3.00166E+01
 -1        27 3.21545E+01
 -1        28 3.21545E+01
 -1        29 2.79977E+01
 -1        30 2.64559E+01
 -1        31 3.59849E+01
 -1        32 3.20399E+01
 -1        33 3.52176E+01
 -1        34 3.06105E+01
 -1        35 2.53601E+01
 -1        36 2.73748E+01
 -1        37 3.12384E+01
 -1        38 3.10438E+01
 -1        39 3.47113E+01
 -1        40 3.47113E+01
 -1        41 2.79381E+01
 -1        42 3.30073E+01
 -1        43 3.66614E+01
 -1        44 3.85491E+01
 -1        45 3.20476E+01
 -1        46 3.05512E+01
 -1        47 3.15056E+01
 -1        48 3.97105E+01
 -1        49 3.97205E+01
 -1        50 3.09585E+01
 -1        51 3.10582E+01
 -1        52 3.10046E+01
 -1        53 2.86398E+01
 -1        54 2.28423E+01
 -1        55 3.14443E+01
 -1        56 3.24364E+01
 -1        57 2.89268E+01
 -1        58 3.20291E+01
 -1        59 3.37339E+01
 -1        60 3.46725E+01
 -1        61 3.94519E+01
 -1        62 3.19875E+01
 -1        63 3.14212E+01
 -1        64 3.36475E+01
 -1        65 3.79222E+01
 -1        66 3.42766E+01
 -1        67 3.44607E+01
 -1        68 3.21013E+01
 -1        69 2.59844E+01
 -1        70 3.63626E+01
 -1        71 3.66690E+01
 -1        72 4.32877E+01
 -1        73 4.36682E+01
 -1        74 3.89326E+01
 -1        75 3.17508E+01
 -1        76 3.57322E+01
 -1        77 3.63626E+01
 -1        78 4.32877E+01
 -1        79 4.30749E+01
 -1        80 2.65646E+01
 -1        81 2.60872E+01
 -1        82 3.09197E+01
 -1        83 2.81640E+01
 -1        84 3.21483E+01
 -1        85 4.12447E+01
 -1        86 3.34809E+01
 -1        87 2.70754E+01
 -1        88 3.06701E+01
 -1        89 3.24211E+01
 -1        90 2.83900E+01
 -1        91 3.91680E+01
 -1        92 4.15728E+01
 -1        93 4.12447E+01
 -1        94 3.34809E+01
 -1        95 3.04212E+01
 -1        96 2.87309E+01
 -1        97 2.99268E+01
 -1        98 3.85884E+01
 -1        99 4.12585E+01
 -1       100 4.12585E+01
 -1       101 3.12796E+01
 -1       102 2.94941E+01
 -1       103 2.30705E+01
 -1       104 3.74421E+01
 -1       105 4.12585E+01
 -1       106 3.03159E+01
 -1       107 3.03159E+01
 -1       108 2.90490E+01
 -1       109 3.09197E+01
 -1       110 2.95807E+01
 -1       111 2.75245E+01
 -1       112 2.45413E+01
 -1       113 1.50068E+01
 -1       114 3.24674E+01
 -1       115 2.87288E+01
 -1       116 3.06701E+01
 -1       117 2.55523E+01
 -1       118 3.24211E+01
 -1       119 2.83900E+01
 -1       120 2.37014E+01
 -1       121 2.16796E+01
 -1       122 1.76958E+01
 -1       123 2.80147E+01
 -1       124 2.80319E+01
 -1       125 3.04212E+01
 -1       126 3.26514E+01
 -1       127 2.82271E+01
 -1       128 3.14443E+01
 -1       129 3.13268E+01
 -1       130 2.89965E+01
 -1       131 3.20291E+01
 -1       132 3.37339E+01
 -1       133 2.40093E+01
 -1       134 3.14000E+01
 -1       135 3.36475E+01
 -1       136 3.42766E+01
 -1       137 3.25283E+01
 -1       138 3.20984E+01
 -1       139 3.21013E+01
 -1       140 3.51007E+01
 -1       141 3.85259E+01
 -1       142 3.48932E+01
 -1       143 3.24805E+01
 -1       144 3.13346E+01
 -1       145 3.79869E+01
 -1       146 3.74358E+01
 -1       147 3.74358E+01
 -1       148 3.83106E+01
 -1       149 2.65578E+01
 -1       150 3.30457E+01
 -1       151 3.30457E+01
 -1       152 3.13693E+01
 -1       153 3.03159E+01
 -1       154 2.98521E+01
 -1       155 3.00166E+01
 -1       156 2.78736E+01
 -1       157 2.78736E+01
 -1       158 3.00348E+01
 -1       159 3.30073E+01
 -1       160 3.66614E+01
 -1       161 3.85491E+01
 -1       162 3.14000E+01
 -1       163 3.54600E+01
 -1       164 3.19451E+01
 -1       165 3.10582E+01
 -1       166 3.10582E+01
 -1       167 3.10046E+01
 -1       168 3.51007E+01
 -1       169 2.28423E+01
 -1       170 3.85259E+01
 -1       171 3.37731E+01
 -1       172 3.66690E+01
 -1       173 3.79869E+01
 -1       174 2.78893E+01
 -1       175 3.05147E+01
 -1       176 3.32266E+01
 -1       177 2.99268E+01
 -1       178 2.85822E+01
 -1       179 3.30457E+01
 -1       180 3.30421E+01
 -1       181 3.06552E+01
 -1       182 3.12796E+01
 -1       183 2.79977E+01
 -1       184 4.06594E+01
 -1       185 4.06594E+01
 -1       186 3.08657E+01
 -1       187 4.06594E+01
 -1       188 3.15375E+01
 -1       189 3.07398E+01
 -1       190 3.07299E+01
 -1       191 3.12527E+01
 -1       192 3.16043E+01
 -1       193 3.40670E+01
 -1       194 3.40670E+01
 -1       195 3.14335E+01
 -1       196 3.14335E+01
 -1       197 3.12830E+01
 -1       198 3.12830E+01
 -1       199 3.30479E+01
 -1       200 3.50587E+01
 -1       201 3.02386E+01
 -1       202 3.60804E+01
 -1       203 3.94519E+01
 -1       204 3.05894E+01
 -1       205 3.14335E+01
 -1       206 3.07930E+01
 -1       207 3.12830E+01
 -1       208 3.30479E+01
 -1       209 2.66941E+01
 -1       210 3.50587E+01
 -1       211 3.21545E+01
 -1       212 3.07398E+01
 -1       213 3.12527E+01
 -1       214 3.12527E+01
 -1       215 3.15121E+01
 -1       216 3.40670E+01
 -1       217 3.14902E+01
 -1       218 3.74603E+01
 -1       219 3.97105E+01
 -1       220 3.24364E+01
 -1       221 3.24364E+01
 -1       222 2.89268E+01
 -1       223 3.12072E+01
 -1       224 3.16450E+01
 -1       225 3.46725E+01
 -1       226 3.18819E+01
 -1       227 3.05512E+01
 -1       228 3.46725E+01
 -1       229 3.85491E+01
 -1       230 3.66614E+01
 -1       231 3.30073E+01
 -1       232 2.79381E+01
 -1       233 3.06263E+01
 -1       234 3.97205E+01
 -1       235 3.42766E+01
 -1       236 3.44607E+01
 -1       237 3.19184E+01
 -1       238 2.47183E+01
 -1       239 2.75556E+01
 -1       240 2.91541E+01
 -1       241 2.95975E+01
 -1       242 2.94249E+01
 -1       243 2.71008E+01
 -1       244 3.97205E+01
 -1       245 2.11726E+01
 -1       246 2.84586E+01
 -1       247 2.65578E+01
 -1       248 4.00496E+01
 -1       249 4.00496E+01
 -1       250 3.13693E+01
 -1       251 2.95165E+01
 -1       252 3.00166E+01
 -1       253 3.12796E+01
 -1       254 3.06552E+01
 -1       255 4.12585E+01
 -1       256 4.00496E+01
 -1       257 2.64576E+01
 -1       258 3.23434E+01
 -1       259 3.04643E+01
 -1       260 4.15728E+01
 -1       261 4.15728E+01
 -1       262 3.34809E+01
 -1       263 2.80319E+01
 -1       264 3.04212E+01
 -1       265 2.87288E+01
 -1       266 3.24674E+01
 -1       267 2.80532E+01
 -1       268 4.15728E+01
 -1       269 3.91680E+01
 -1       270 2.75245E+01
 -1       271 2.95807E+01
 -1       272 3.46651E+01
 -1       273 3.50641E+01
 -1       274 3.88689E+01
 -1       275 4.36682E+01
 -1       276 4.36682E+01
 -1       277 3.89326E+01
 -1       278 3.89326E+01
 -1       279 4.36682E+01
 -1       280 4.32877E+01
 -1       281 3.88689E+01
 -1       282 3.63626E+01
 -1       283 3.09197E+01
 -1       284 2.81640E+01
 -1       285 2.60139E+01
 -1       286 2.19774E+01
 -1       287 1.48483E+01
 -1       288 3.24674E+01
 -1       289 3.24674E+01
 -1       290 3.06701E+01
 -1       291 3.06701E+01
 -1       292 3.24211E+01
 -1       293 2.91136E+01
 -1       294 2.62228E+01
 -1       295 2.16796E+01
 -1       296 1.76958E+01
 -1       297 2.80319E+01
 -1       298 3.04212E+01
 -1       299 3.26514E+01
 -1       300 3.26514E+01
 -1       301 3.47113E+01
 -1       302 3.14443E+01
 -1       303 3.24364E+01
 -1       304 2.76349E+01
 -1       305 3.20291E+01
 -1       306 3.40780E+01
 -1       307 3.24793E+01
 -1       308 2.38738E+01
 -1       309 3.79222E+01
 -1       310 3.79222E+01
 -1       311 3.44607E+01
 -1       312 3.44607E+01
 -1       313 3.51007E+01
 -1       314 2.59844E+01
 -1       315 2.65578E+01
 -1       316 2.88380E+01
 -1       317 3.30457E+01
 -1       318 3.02571E+01
 -1       319 3.03159E+01
 -1       320 2.98521E+01
 -1       321 3.00166E+01
 -1       322 3.85259E+01
 -1       323 3.28253E+01
 -1       324 3.24805E+01
 -1       325 3.79869E+01
 -1       326 2.94618E+01
 -1       327 3.74358E+01
 -1       328 3.43083E+01
 -1       329 2.78736E+01
 -1       330 2.79381E+01
 -1       331 3.30073E+01
 -1       332 3.66614E+01
 -1       333 3.85491E+01
 -1       334 3.01608E+01
 -1       335 2.88094E+01
 -1       336 3.14000E+01
 -1       337 3.54600E+01
 -1       338 3.09585E+01
 -1       339 3.10582E+01
 -1       340 3.10046E+01
 -1       341 2.91541E+01
 -1       342 3.51007E+01
 -1       343 2.99268E+01
 -1       344 2.99268E+01
 -1       345 2.88380E+01
 -1       346 3.30421E+01
 -1       347 3.06552E+01
 -1       348 3.12796E+01
 -1       349 2.79977E+01
 -1       350 3.48932E+01
 -1       351 3.66690E+01
 -1       352 3.13346E+01
 -1       353 3.79869E+01
 -1       354 2.94618E+01
 -1       355 3.74358E+01
 -1       356 3.83106E+01
 -1       357 3.97105E+01
 -1       358 3.94519E+01
 -1       359 4.32877E+01
 -1       360 2.56394E+01
 -1       361 2.70578E+01
 -1       362 2.99138E+01
 -1       363 3.40780E+01
 -1       364 3.05470E+01
 -1       365 3.43069E+01
 -1       366 3.07930E+01
 -1       367 4.06594E+01
 -1       368 3.20994E+01
 -1       369 3.07299E+01
 -1       370 3.50587E+01
 -1       371 3.40670E+01
 -1       372 3.01170E+01
 -1       373 3.46133E+01
 -1       374 3.00363E+01
 -1       375 3.01266E+01
 -1       376 3.30479E+01
 -1       377 3.94519E+01
 -1       378 3.00431E+01
 -1       379 3.07819E+01
 -1       380 2.99642E+01
 -1       381 3.05106E+01
 -1       382 2.73844E+01
 -1       383 3.97205E+01
 -1       384 3.24793E+01
 -1       385 2.92157E+01
 -1       386 3.36475E+01
 -1       387 2.70953E+01
 -1       388 3.54600E+01
 -1       389 3.54600E+01
 -1       390 3.05470E+01
 -1       391 2.75728E+01
 -1       392 3.01608E+01
 -1       393 2.32577E+01
 -1       394 3.07930E+01
 -1       395 3.12527E+01
 -1       396 3.05106E+01
 -1       397 3.46133E+01
 -1       398 3.12830E+01
 -1       399 3.30479E+01
 -1       400 3.46133E+01
 -1       401 3.46133E+01
 -1       402 2.57423E+01
 -1       403 3.55395E+01
 -1       404 2.68402E+01
 -1       405 3.04727E+01
 -1       406 3.48344E+01
 -1       407 3.76052E+01
 -1       408 3.52983E+01
 -1       409 3.12994E+01
 -1       410 3.10284E+01
 -1       411 3.56081E+01
 -1       412 3.97155E+01
 -1       413 3.53395E+01
 -1       414 3.10084E+01
 -1       415 3.10314E+01
 -1       416 2.98222E+01
 -1       417 2.57411E+01
 -1       418 2.89682E+01
 -1       419 2.85933E+01
 -1       420 3.19404E+01
 -1       421 3.06816E+01
 -1       422 3.04780E+01
 -1       423 3.28815E+01
 -1       424 3.42032E+01
 -1       425 3.70622E+01
 -1       426 3.57197E+01
 -1       427 3.17043E+01
 -1       428 3.25343E+01
 -1       429 3.57849E+01
 -1       430 3.60994E+01
 -1       431 3.43686E+01
 -1       432 3.32810E+01
 -1       433 2.90429E+01
 -1       434 3.09846E+01
 -1       435 2.92535E+01
 -1       436 3.57283E+01
 -1       437 3.65158E+01
 -1       438 3.99784E+01
 -1       439 4.34780E+01
 -1       440 4.13004E+01
 -1       441 3.53417E+01
 -1       442 3.02459E+01
 -1       443 3.58585E+01
 -1       444 3.60474E+01
 -1       445 3.98251E+01
 -1       446 4.31813E+01
 -1       447 3.48198E+01
 -1       448 2.63259E+01
 -1       449 2.79267E+01
 -1       450 1.97372E+01
 -1       451 2.98303E+01
 -1       452 2.95419E+01
 -1       453 3.01562E+01
 -1       454 3.66965E+01
 -1       455 3.73628E+01
 -1       456 3.02782E+01
 -1       457 2.88728E+01
 -1       458 2.56459E+01
 -1       459 3.10936E+01
 -1       460 3.04055E+01
 -1       461 3.37790E+01
 -1       462 4.03704E+01
 -1       463 4.14088E+01
 -1       464 3.73628E+01
 -1       465 3.19510E+01
 -1       466 2.95760E+01
 -1       467 2.37918E+01
 -1       468 2.52742E+01
 -1       469 3.42576E+01
 -1       470 3.99235E+01
 -1       471 4.12585E+01
 -1       472 3.62690E+01
 -1       473 3.03869E+01
 -1       474 2.76182E+01
 -1       475 2.09616E+01
 -1       476 3.02563E+01
 -1       477 3.93503E+01
 -1       478 3.57872E+01
 -1       479 3.03159E+01
 -1       480 2.96825E+01
 -1       481 2.73957E+01
 -1       482 3.83106E+01
 -1       483 2.73748E+01
 -1       484 3.46151E+01
 -1       485 3.02502E+01
 -1       486 2.85526E+01
 -1       487 2.60329E+01
 -1       488 1.97740E+01
 -1       489 2.37371E+01
 -1       490 3.05981E+01
 -1       491 2.96995E+01
 -1       492 2.81112E+01
 -1       493 2.64636E+01
 -1       494 3.53658E+01
 -1       495 3.04055E+01
 -1       496 2.60457E+01
 -1       497 2.26905E+01
 -1       498 1.96877E+01
 -1       499 2.28552E+01
 -1       500 2.80233E+01
 -1       501 2.92265E+01
 -1       502 3.15363E+01
 -1       503 3.00131E+01
 -1       504 2.72095E+01
 -1       505 2.98357E+01
 -1       506 3.13856E+01
 -1       507 3.01617E+01
 -1       508 3.05128E+01
 -1       509 3.28815E+01
 -1       510 2.88716E+01
 -1       511 2.77046E+01
 -1       512 3.25238E+01
 -1       513 3.39620E+01
 -1       514 3.34024E+01
 -1       515 3.23134E+01
 -1       516 3.20999E+01
 -1       517 3.36010E+01
 -1       518 3.52832E+01
 -1       519 3.69958E+01
 -1       520 3.67096E+01
 -1       521 3.36869E+01
 -1       522 3.19075E+01
 -1       523 3.46607E+01
 -1       524 3.77113E+01
 -1       525 3.74358E+01
 -1       526 3.78732E+01
 -1       527 3.83106E+01
 -1       528 2.69663E+01
 -1       529 2.98018E+01
 -1       530 3.30457E+01
 -1       531 3.22075E+01
 -1       532 3.08426E+01
 -1       533 3.00840E+01
 -1       534 2.99343E+01
 -1       535 2.81043E+01
 -1       536 3.12924E+01
 -1       537 2.78736E+01
 -1       538 2.89542E+01
 -1       539 3.15211E+01
 -1       540 3.48344E+01
 -1       541 3.76052E+01
 -1       542 3.49745E+01
 -1       543 3.34300E+01
 -1       544 3.37026E+01
 -1       545 3.15017E+01
 -1       546 3.10582E+01
 -1       547 3.10314E+01
 -1       548 3.30527E+01
 -1       549 2.89715E+01
 -1       550 3.06841E+01
 -1       551 3.85259E+01
 -1       552 3.61495E+01
 -1       553 3.52211E+01
 -1       554 3.73279E+01
 -1       555 3.29381E+01
 -1       556 2.92020E+01
 -1       557 3.18706E+01
 -1       558 3.57686E+01
 -1       559 2.86508E+01
 -1       560 2.92545E+01
 -1       561 3.08140E+01
 -1       562 3.30439E+01
 -1       563 3.18487E+01
 -1       564 3.09674E+01
 -1       565 2.96387E+01
 -1       566 3.13545E+01
 -1       567 3.69958E+01
 -1       568 3.04516E+01
 -1       569 2.76421E+01
 -1       570 3.63443E+01
 -1       571 4.06594E+01
 -1       572 3.25784E+01
 -1       573 2.79938E+01
 -1       574 3.11780E+01
 -1       575 3.57625E+01
 -1       576 3.19572E+01
 -1       577 3.18460E+01
 -1       578 3.11387E+01
 -1       579 3.07349E+01
 -1       580 3.09913E+01
 -1       581 3.14285E+01
 -1       582 3.28357E+01
 -1       583 3.40670E+01
 -1       584 3.27786E+01
 -1       585 3.05607E+01
 -1       586 3.14335E+01
 -1       587 3.13582E+01
 -1       588 3.12830E+01
 -1       589 3.21655E+01
 -1       590 3.40533E+01
 -1       591 3.26486E+01
 -1       592 2.67468E+01
 -1       593 3.41174E+01
 -1       594 3.77661E+01
 -1       595 3.45699E+01
 -1       596 3.05894E+01
 -1       597 3.10115E+01
 -1       598 3.11133E+01
 -1       599 3.10380E+01
 -1       600 3.21655E+01
 -1       601 2.98710E+01
 -1       602 3.08764E+01
 -1       603 3.35439E+01
 -1       604 3.21545E+01
 -1       605 3.14471E+01
 -1       606 3.09962E+01
 -1       607 3.12527E+01
 -1       608 3.13824E+01
 -1       609 3.27896E+01
 -1       610 3.27786E+01
 -1       611 2.79938E+01
 -1       612 3.40248E+01
 -1       613 3.85854E+01
 -1       614 3.59325E+01
 -1       615 3.01386E+01
 -1       616 3.12265E+01
 -1       617 3.24364E+01
 -1       618 3.06816E+01
 -1       619 3.00670E+01
 -1       620 3.14261E+01
 -1       621 3.31587E+01
 -1       622 3.32772E+01
 -1       623 3.07849E+01
 -1       624 3.13528E+01
 -1       625 3.26118E+01
 -1       626 3.66108E+01
 -1       627 3.76052E+01
 -1       628 3.48344E+01
 -1       629 3.04727E+01
 -1       630 2.79679E+01
 -1       631 2.90072E+01
 -1       632 3.21545E+01
 -1       633 3.06079E+01
 -1       634 3.51734E+01
 -1       635 3.69985E+01
 -1       636 3.43686E+01
 -1       637 3.31896E+01
 -1       638 2.83184E+01
 -1       639 3.03516E+01
 -1       640 3.59849E+01
 -1       641 3.17703E+01
 -1       642 2.83549E+01
 -1       643 2.93758E+01
 -1       644 2.95112E+01
 -1       645 2.82628E+01
 -1       646 3.34107E+01
 -1       647 3.04466E+01
 -1       648 2.48156E+01
 -1       649 3.03065E+01
 -1       650 2.96046E+01
 -1       651 3.33037E+01
 -1       652 4.00496E+01
 -1       653 3.57094E+01
 -1       654 3.04429E+01
 -1       655 2.97666E+01
 -1       656 3.00166E+01
 -1       657 2.96387E+01
 -1       658 3.09674E+01
 -1       659 3.59568E+01
 -1       660 4.06540E+01
 -1       661 3.32536E+01
 -1       662 2.64567E+01
 -1       663 2.95536E+01
 -1       664 3.23823E+01
 -1       665 3.14039E+01
 -1       666 3.60186E+01
 -1       667 4.15728E+01
 -1       668 3.75269E+01
 -1       669 3.07564E+01
 -1       670 2.92265E+01
 -1       671 3.15363E+01
 -1       672 2.75923E+01
 -1       673 3.05981E+01
 -1       674 3.02603E+01
 -1       675 3.48130E+01
 -1       676 4.03704E+01
 -1       677 3.33462E+01
 -1       678 2.85526E+01
 -1       679 3.08103E+01
 -1       680 3.22305E+01
 -1       681 3.53250E+01
 -1       682 3.48646E+01
 -1       683 3.69665E+01
 -1       684 4.12685E+01
 -1       685 4.36682E+01
 -1       686 4.13004E+01
 -1       687 3.56768E+01
 -1       688 3.54862E+01
 -1       689 4.13004E+01
 -1       690 4.34780E+01
 -1       691 4.10783E+01
 -1       692 3.76157E+01
 -1       693 3.61737E+01
 -1       694 3.29141E+01
 -1       695 2.63674E+01
 -1       696 3.07651E+01
 -1       697 2.95419E+01
 -1       698 2.70890E+01
 -1       699 2.39957E+01
 -1       700 1.84128E+01
 -1       701 2.36579E+01
 -1       702 3.24674E+01
 -1       703 3.15688E+01
 -1       704 3.06701E+01
 -1       705 2.90225E+01
 -1       706 3.38194E+01
 -1       707 3.07673E+01
 -1       708 2.76682E+01
 -1       709 2.39512E+01
 -1       710 1.96877E+01
 -1       711 2.28639E+01
 -1       712 2.92265E+01
 -1       713 3.15363E+01
 -1       714 3.26514E+01
 -1       715 2.90057E+01
 -1       716 3.47113E+01
 -1       717 3.30778E+01
 -1       718 3.19404E+01
 -1       719 3.00357E+01
 -1       720 2.98320E+01
 -1       721 3.30536E+01
 -1       722 3.32787E+01
 -1       723 2.81765E+01
 -1       724 3.08980E+01
 -1       725 3.79222E+01
 -1       726 3.61915E+01
 -1       727 3.44607E+01
 -1       728 3.47807E+01
 -1       729 3.05426E+01
 -1       730 2.86114E+01
 -1       731 2.59589E+01
 -1       732 2.76979E+01
 -1       733 3.09418E+01
 -1       734 3.16514E+01
 -1       735 3.02865E+01
 -1       736 3.00840E+01
 -1       737 2.99343E+01
 -1       738 3.23639E+01
 -1       739 3.48822E+01
 -1       740 3.56756E+01
 -1       741 3.26529E+01
 -1       742 3.52337E+01
 -1       743 3.37243E+01
 -1       744 3.34488E+01
 -1       745 3.58721E+01
 -1       746 3.47630E+01
 -1       747 3.12924E+01
 -1       748 2.79058E+01
 -1       749 3.04727E+01
 -1       750 3.48344E+01
 -1       751 3.76052E+01
 -1       752 3.43549E+01
 -1       753 2.94851E+01
 -1       754 3.01047E+01
 -1       755 3.34300E+01
 -1       756 3.32092E+01
 -1       757 3.10084E+01
 -1       758 3.10314E+01
 -1       759 3.00794E+01
 -1       760 3.21274E+01
 -1       761 3.30723E+01
 -1       762 2.86508E+01
 -1       763 2.99268E+01
 -1       764 2.93824E+01
 -1       765 3.09401E+01
 -1       766 3.18487E+01
 -1       767 3.09674E+01
 -1       768 2.96387E+01
 -1       769 3.13545E+01
 -1       770 3.29685E+01
 -1       771 3.57811E+01
 -1       772 3.40018E+01
 -1       773 3.46607E+01
 -1       774 3.37243E+01
 -1       775 3.34488E+01
 -1       776 3.78732E+01
 -1       777 3.44605E+01
 -1       778 3.11411E+01
 -1       779 3.47113E+01
 -1       780 2.85933E+01
 -1       781 2.94136E+01
 -1       782 2.96912E+01
 -1       783 3.09671E+01
 -1       784 3.27941E+01
 -1       785 3.43453E+01
 -1       786 3.52891E+01
 -1       787 3.61415E+01
 -1       788 3.28907E+01
 -1       789 3.56081E+01
 -1       790 3.97105E+01
 -1       791 3.88214E+01
 -1       792 3.44404E+01
 -1       793 3.26175E+01
 -1       794 3.26674E+01
 -1       795 2.44134E+01
 -1       796 3.33601E+01
 -1       797 3.57197E+01
 -1       798 3.94519E+01
 -1       799 3.55658E+01
 -1       800 3.58490E+01
 -1       801 3.66790E+01
 -1       802 3.66840E+01
 -1       803 3.97155E+01
 -1       804 3.27219E+01
 -1       805 3.26118E+01
 -1       806 3.50015E+01
 -1       807 3.54788E+01
 -1       808 3.26406E+01
 -1       809 2.74718E+01
 -1       810 3.95812E+01
 -1       811 3.27327E+01
 -1       812 3.03706E+01
 -1       813 3.01872E+01
 -1       814 3.70622E+01
 -1       815 3.15503E+01
 -1       816 3.61737E+01
 -1       817 3.07585E+01
 -1       818 2.89190E+01
 -1       819 3.25099E+01
 -1       820 3.60474E+01
 -1       821 3.27486E+01
 -1       822 3.63626E+01
 -1       823 3.65158E+01
 -1       824 3.51164E+01
 -1       825 4.33715E+01
 -1       826 3.99784E+01
 -1       827 4.32877E+01
 -1       828 4.32877E+01
 -1       829 4.32877E+01
 -1       830 4.31813E+01
 -1       831 4.31813E+01
 -1       832 3.03429E+01
 -1       833 2.46763E+01
 -1       834 2.97005E+01
 -1       835 3.16704E+01
 -1       836 2.96548E+01
 -1       837 2.82770E+01
 -1       838 2.87483E+01
 -1       839 3.05456E+01
 -1       840 3.36660E+01
 -1       841 3.02782E+01
 -1       842 3.56581E+01
 -1       843 3.34809E+01
 -1       844 3.68606E+01
 -1       845 3.73628E+01
 -1       846 4.14088E+01
 -1       847 4.12447E+01
 -1       848 2.43898E+01
 -1       849 2.76182E+01
 -1       850 2.92716E+01
 -1       851 2.64986E+01
 -1       852 3.08294E+01
 -1       853 3.80153E+01
 -1       854 3.93503E+01
 -1       855 3.07978E+01
 -1       856 2.99050E+01
 -1       857 4.12585E+01
 -1       858 3.07978E+01
 -1       859 3.57872E+01
 -1       860 4.12585E+01
 -1       861 3.53658E+01
 -1       862 2.64636E+01
 -1       863 3.16704E+01
 -1       864 3.10009E+01
 -1       865 2.79572E+01
 -1       866 2.89853E+01
 -1       867 2.79867E+01
 -1       868 3.05456E+01
 -1       869 2.91019E+01
 -1       870 2.56129E+01
 -1       871 2.93510E+01
 -1       872 2.41213E+01
 -1       873 2.83804E+01
 -1       874 2.31104E+01
 -1       875 2.83718E+01
 -1       876 3.02411E+01
 -1       877 1.83432E+01
 -1       878 2.50816E+01
 -1       879 1.63513E+01
 -1       880 2.69847E+01
 -1       881 2.59671E+01
 -1       882 3.14443E+01
 -1       883 2.98357E+01
 -1       884 3.20291E+01
 -1       885 3.05128E+01
 -1       886 3.37339E+01
 -1       887 3.28815E+01
 -1       888 3.60994E+01
 -1       889 3.57849E+01
 -1       890 3.34024E+01
 -1       891 3.42766E+01
 -1       892 3.05426E+01
 -1       893 2.90429E+01
 -1       894 3.57253E+01
 -1       895 3.55428E+01
 -1       896 3.72554E+01
 -1       897 3.53127E+01
 -1       898 3.71290E+01
 -1       899 3.44215E+01
 -1       900 3.56279E+01
 -1       901 3.20002E+01
 -1       902 3.20002E+01
 -1       903 3.21989E+01
 -1       904 3.17615E+01
 -1       905 3.40384E+01
 -1       906 3.40384E+01
 -1       907 3.10936E+01
 -1       908 3.06912E+01
 -1       909 2.95760E+01
 -1       910 2.31138E+01
 -1       911 2.57521E+01
 -1       912 2.27053E+01
 -1       913 3.00840E+01
 -1       914 3.03159E+01
 -1       915 2.95328E+01
 -1       916 2.94506E+01
 -1       917 2.78794E+01
 -1       918 2.48141E+01
 -1       919 2.80581E+01
 -1       920 3.52439E+01
 -1       921 3.24211E+01
 -1       922 3.04055E+01
 -1       923 2.83900E+01
 -1       924 2.60457E+01
 -1       925 3.14347E+01
 -1       926 2.89617E+01
 -1       927 3.42032E+01
 -1       928 3.25456E+01
 -1       929 2.88135E+01
 -1       930 2.95227E+01
 -1       931 2.92395E+01
 -1       932 2.63486E+01
 -1       933 3.06675E+01
 -1       934 3.17807E+01
 -1       935 3.36475E+01
 -1       936 3.21013E+01
 -1       937 3.19404E+01
 -1       938 3.04212E+01
 -1       939 3.20999E+01
 -1       940 3.01268E+01
 -1       941 3.18816E+01
 -1       942 2.85197E+01
 -1       943 2.48244E+01
 -1       944 3.32796E+01
 -1       945 3.34945E+01
 -1       946 2.92265E+01
 -1       947 3.67650E+01
 -1       948 2.98587E+01
 -1       949 2.90437E+01
 -1       950 3.43753E+01
 -1       951 2.84858E+01
 -1       952 3.17807E+01
 -1       953 3.06569E+01
 -1       954 3.39060E+01
 -1       955 2.92289E+01
 -1       956 4.02553E+01
 -1       957 4.05309E+01
 -1       958 3.07564E+01
 -1       959 3.07478E+01
 -1       960 3.52439E+01
 -1       961 3.71521E+01
 -1       962 3.04238E+01
 -1       963 3.03159E+01
 -1       964 3.73112E+01
 -1       965 3.78841E+01
 -1       966 3.46297E+01
 -1       967 2.94703E+01
 -1       968 3.16262E+01
 -1       969 3.63139E+01
 -1       970 3.08426E+01
 -1       971 2.96343E+01
 -1       972 3.72047E+01
 -1       973 3.02268E+01
 -1       974 2.68079E+01
 -1       975 2.79058E+01
 -1       976 2.79058E+01
 -1       977 3.48344E+01
 -1       978 3.66614E+01
 -1       979 3.76052E+01
 -1       980 3.85491E+01
 -1       981 3.45501E+01
 -1       982 3.09756E+01
 -1       983 3.75902E+01
 -1       984 3.58328E+01
 -1       985 2.98222E+01
 -1       986 3.18703E+01
 -1       987 2.89715E+01
 -1       988 2.28423E+01
 -1       989 2.89682E+01
 -1       990 3.68100E+01
 -1       991 3.68100E+01
 -1       992 3.34109E+01
 -1       993 3.47236E+01
 -1       994 3.11328E+01
 -1       995 3.24887E+01
 -1       996 3.20732E+01
 -1       997 3.09197E+01
 -1       998 3.02502E+01
 -1       999 2.88724E+01
 -1      1000 2.78443E+01
 -1      1001 3.06701E+01
 -1      1002 2.81112E+01
 -1      1003 2.30870E+01
 -1      1004 2.39982E+01
 -1      1005 2.52742E+01
 -1      1006 2.99268E+01
 -1      1007 2.92545E+01
 -1      1008 3.35853E+01
 -1      1009 3.58171E+01
 -1      1010 3.03869E+01
 -1      1011 2.87459E+01
 -1      1012 2.68700E+01
 -1      1013 3.12796E+01
 -1      1014 3.74442E+01
 -1      1015 3.51287E+01
 -1      1016 3.10263E+01
 -1      1017 3.75852E+01
 -1      1018 3.14518E+01
 -1      1019 3.10582E+01
 -1      1020 3.10084E+01
 -1      1021 3.50678E+01
 -1      1022 3.52211E+01
 -1      1023 3.14528E+01
 -1      1024 3.10582E+01
 -1      1025 3.57788E+01
 -1      1026 3.09837E+01
 -1      1027 3.09674E+01
 -1      1028 3.71521E+01
 -1      1029 3.09735E+01
 -1      1030 3.30073E+01
 -1      1031 3.52983E+01
 -1      1032 3.10314E+01
 -1      1033 2.89865E+01
 -1      1034 3.15211E+01
 -1      1035 3.30035E+01
 -1      1036 3.10046E+01
 -1      1037 3.66690E+01
 -1      1038 2.98303E+01
 -1      1039 2.98364E+01
 -1      1040 2.83448E+01
 -1      1041 2.96995E+01
 -1      1042 3.59568E+01
 -1      1043 2.79021E+01
 -1      1044 3.99784E+01
 -1      1045 4.06373E+01
 -1      1046 4.08275E+01
 -1      1047 2.97714E+01
 -1      1048 3.71503E+01
 -1      1049 3.71503E+01
 -1      1050 3.29742E+01
 -1      1051 3.28930E+01
 -1      1052 2.81258E+01
 -1      1053 2.42439E+01
 -1      1054 3.85259E+01
 -1      1055 3.83106E+01
 -1      1056 3.85259E+01
 -1      1057 3.43332E+01
 -1      1058 3.67096E+01
 -1      1059 3.39752E+01
 -1      1060 3.26626E+01
 -1      1061 3.53312E+01
 -1      1062 3.39752E+01
 -1      1063 3.57686E+01
 -1      1064 3.31268E+01
 -1      1065 3.29381E+01
 -1      1066 3.45747E+01
 -1      1067 3.40018E+01
 -1      1068 3.46607E+01
 -1      1069 3.79869E+01
 -1      1070 2.86508E+01
 -1      1071 3.23639E+01
 -1      1072 2.90072E+01
 -1      1073 2.75700E+01
 -1      1074 2.82423E+01
 -1      1075 3.30457E+01
 -1      1076 3.08140E+01
 -1      1077 2.89249E+01
 -1      1078 3.05659E+01
 -1      1079 3.30457E+01
 -1      1080 3.07978E+01
 -1      1081 3.04856E+01
 -1      1082 3.30439E+01
 -1      1083 3.10122E+01
 -1      1084 3.22057E+01
 -1      1085 3.14692E+01
 -1      1086 3.68133E+01
 -1      1087 2.80504E+01
 -1      1088 2.96589E+01
 -1      1089 2.96589E+01
 -1      1090 3.43453E+01
 -1      1091 3.25182E+01
 -1      1092 3.61415E+01
 -1      1093 3.51977E+01
 -1      1094 2.77046E+01
 -1      1095 3.12792E+01
 -1      1096 3.34300E+01
 -1      1097 3.14000E+01
 -1      1098 3.27963E+01
 -1      1099 3.45537E+01
 -1      1100 3.26674E+01
 -1      1101 3.31109E+01
 -1      1102 3.17933E+01
 -1      1103 3.17933E+01
 -1      1104 3.36010E+01
 -1      1105 3.15530E+01
 -1      1106 2.89715E+01
 -1      1107 3.51007E+01
 -1      1108 3.15515E+01
 -1      1109 3.10019E+01
 -1      1110 3.15783E+01
 -1      1111 2.96002E+01
 -1      1112 3.06808E+01
 -1      1113 2.95157E+01
 -1      1114 3.63443E+01
 -1      1115 4.06594E+01
 -1      1116 3.60748E+01
 -1      1117 3.57625E+01
 -1      1118 4.06594E+01
 -1      1119 3.38090E+01
 -1      1120 3.25233E+01
 -1      1121 3.29222E+01
 -1      1122 3.07615E+01
 -1      1123 3.07664E+01
 -1      1124 3.25500E+01
 -1      1125 3.12678E+01
 -1      1126 3.10065E+01
 -1      1127 3.14436E+01
 -1      1128 3.45629E+01
 -1      1129 3.33315E+01
 -1      1130 3.24664E+01
 -1      1131 3.54427E+01
 -1      1132 3.28702E+01
 -1      1133 3.28702E+01
 -1      1134 3.11133E+01
 -1      1135 3.10380E+01
 -1      1136 3.54490E+01
 -1      1137 3.68794E+01
 -1      1138 4.06594E+01
 -1      1139 3.57625E+01
 -1      1140 3.51937E+01
 -1      1141 3.73632E+01
 -1      1142 3.54490E+01
 -1      1143 3.23261E+01
 -1      1144 3.73632E+01
 -1      1145 3.78590E+01
 -1      1146 3.10065E+01
 -1      1147 3.40248E+01
 -1      1148 3.17664E+01
 -1      1149 3.13444E+01
 -1      1150 3.07615E+01
 -1      1151 3.10817E+01
 -1      1152 3.14147E+01
 -1      1153 3.12678E+01
 -1      1154 3.10229E+01
 -1      1155 3.22800E+01
 -1      1156 3.13975E+01
 -1      1157 2.91031E+01
 -1      1158 3.50587E+01
 -1      1159 3.08764E+01
 -1      1160 3.78590E+01
 -1      1161 3.59325E+01
 -1      1162 3.21269E+01
 -1      1163 3.14196E+01
 -1      1164 3.07349E+01
 -1      1165 3.09913E+01
 -1      1166 3.40670E+01
 -1      1167 3.27786E+01
 -1      1168 3.60748E+01
 -1      1169 3.59049E+01
 -1      1170 3.47798E+01
 -1      1171 3.78590E+01
 -1      1172 3.73632E+01
 -1      1173 3.03806E+01
 -1      1174 3.73632E+01
 -1      1175 3.10229E+01
 -1      1176 3.45629E+01
 -1      1177 3.03806E+01
 -1      1178 3.11339E+01
 -1      1179 3.26486E+01
 -1      1180 3.10115E+01
 -1      1181 3.50587E+01
 -1      1182 3.10115E+01
 -1      1183 3.08764E+01
 -1      1184 3.07753E+01
 -1      1185 3.03532E+01
 -1      1186 3.06537E+01
 -1      1187 3.48360E+01
 -1      1188 3.14335E+01
 -1      1189 3.14335E+01
 -1      1190 3.07349E+01
 -1      1191 3.07349E+01
 -1      1192 3.10380E+01
 -1      1193 3.11133E+01
 -1      1194 3.07048E+01
 -1      1195 3.04598E+01
 -1      1196 3.40533E+01
 -1      1197 3.30479E+01
 -1      1198 3.07753E+01
 -1      1199 3.30479E+01
 -1      1200 3.30479E+01
 -1      1201 3.12830E+01
 -1      1202 3.12830E+01
 -1      1203 3.21655E+01
 -1      1204 3.04147E+01
 -1      1205 3.38306E+01
 -1      1206 3.07048E+01
 -1      1207 3.21655E+01
 -1      1208 3.02171E+01
 -1      1209 3.01872E+01
 -1      1210 3.01872E+01
 -1      1211 3.27219E+01
 -1      1212 3.09671E+01
 -1      1213 3.27941E+01
 -1      1214 3.39343E+01
 -1      1215 3.48781E+01
 -1      1216 3.50970E+01
 -1      1217 3.31587E+01
 -1      1218 3.46725E+01
 -1      1219 3.56669E+01
 -1      1220 3.33158E+01
 -1      1221 3.94519E+01
 -1      1222 3.77661E+01
 -1      1223 3.50015E+01
 -1      1224 3.56669E+01
 -1      1225 3.70622E+01
 -1      1226 3.70622E+01
 -1      1227 3.14902E+01
 -1      1228 3.27786E+01
 -1      1229 3.21545E+01
 -1      1230 3.40670E+01
 -1      1231 3.18460E+01
 -1      1232 3.40670E+01
 -1      1233 3.10988E+01
 -1      1234 3.07903E+01
 -1      1235 3.24245E+01
 -1      1236 3.24245E+01
 -1      1237 3.07398E+01
 -1      1238 3.14471E+01
 -1      1239 3.03520E+01
 -1      1240 3.03520E+01
 -1      1241 3.09913E+01
 -1      1242 3.07349E+01
 -1      1243 3.08816E+01
 -1      1244 3.06203E+01
 -1      1245 3.28357E+01
 -1      1246 3.15582E+01
 -1      1247 3.03914E+01
 -1      1248 2.94943E+01
 -1      1249 2.94482E+01
 -1      1250 3.12527E+01
 -1      1251 3.12527E+01
 -1      1252 2.93185E+01
 -1      1253 2.93185E+01
 -1      1254 3.03471E+01
 -1      1255 3.11931E+01
 -1      1256 3.08816E+01
 -1      1257 3.40433E+01
 -1      1258 3.51734E+01
 -1      1259 3.97205E+01
 -1      1260 3.34107E+01
 -1      1261 3.06887E+01
 -1      1262 3.05363E+01
 -1      1263 2.69362E+01
 -1      1264 2.61370E+01
 -1      1265 3.17703E+01
 -1      1266 3.20291E+01
 -1      1267 3.19428E+01
 -1      1268 3.18507E+01
 -1      1269 3.97205E+01
 -1      1270 3.04466E+01
 -1      1271 3.40896E+01
 -1      1272 3.40845E+01
 -1      1273 3.85904E+01
 -1      1274 3.97155E+01
 -1      1275 3.07580E+01
 -1      1276 3.97205E+01
 -1      1277 2.65068E+01
 -1      1278 2.65077E+01
 -1      1279 3.32536E+01
 -1      1280 3.03981E+01
 -1      1281 3.06481E+01
 -1      1282 2.90072E+01
 -1      1283 4.00496E+01
 -1      1284 3.00859E+01
 -1      1285 4.00496E+01
 -1      1286 3.10122E+01
 -1      1287 3.63139E+01
 -1      1288 4.06540E+01
 -1      1289 3.10009E+01
 -1      1290 3.09621E+01
 -1      1291 2.99340E+01
 -1      1292 2.89944E+01
 -1      1293 2.83804E+01
 -1      1294 2.95750E+01
 -1      1295 2.84385E+01
 -1      1296 3.48161E+01
 -1      1297 4.03704E+01
 -1      1298 3.02497E+01
 -1      1299 3.29742E+01
 -1      1300 3.07671E+01
 -1      1301 4.15728E+01
 -1      1302 4.15728E+01
 -1      1303 3.48130E+01
 -1      1304 3.53250E+01
 -1      1305 3.55138E+01
 -1      1306 3.57134E+01
 -1      1307 4.13004E+01
 -1      1308 3.89326E+01
 -1      1309 3.54862E+01
 -1      1310 4.36682E+01
 -1      1311 3.69665E+01
 -1      1312 4.36682E+01
 -1      1313 3.88689E+01
 -1      1314 4.10783E+01
 -1      1315 4.34780E+01
 -1      1316 3.15158E+01
 -1      1317 3.00131E+01
 -1      1318 3.16704E+01
 -1      1319 3.00166E+01
 -1      1320 2.86388E+01
 -1      1321 2.75637E+01
 -1      1322 3.14443E+01
 -1      1323 3.05456E+01
 -1      1324 3.16608E+01
 -1      1325 3.16608E+01
 -1      1326 3.16608E+01
 -1      1327 2.61184E+01
 -1      1328 2.41001E+01
 -1      1329 3.02497E+01
 -1      1330 3.02497E+01
 -1      1331 2.18285E+01
 -1      1332 1.82639E+01
 -1      1333 1.62720E+01
 -1      1334 2.50816E+01
 -1      1335 3.23639E+01
 -1      1336 3.23639E+01
 -1      1337 3.07304E+01
 -1      1338 2.94210E+01
 -1      1339 3.16181E+01
 -1      1340 3.18370E+01
 -1      1341 3.28615E+01
 -1      1342 3.43753E+01
 -1      1343 3.35759E+01
 -1      1344 3.88214E+01
 -1      1345 3.88214E+01
 -1      1346 3.60994E+01
 -1      1347 3.43686E+01
 -1      1348 3.31896E+01
 -1      1349 3.35096E+01
 -1      1350 2.99095E+01
 -1      1351 2.53514E+01
 -1      1352 3.22552E+01
 -1      1353 2.90057E+01
 -1      1354 2.96046E+01
 -1      1355 2.99162E+01
 -1      1356 2.96843E+01
 -1      1357 2.99343E+01
 -1      1358 3.00166E+01
 -1      1359 3.19404E+01
 -1      1360 2.65578E+01
 -1      1361 3.65955E+01
 -1      1362 3.37452E+01
 -1      1363 3.39447E+01
 -1      1364 3.37723E+01
 -1      1365 3.65650E+01
 -1      1366 4.05520E+01
 -1      1367 3.81842E+01
 -1      1368 3.66204E+01
 -1      1369 3.33647E+01
 -1      1370 3.38194E+01
 -1      1371 3.24211E+01
 -1      1372 3.23823E+01
 -1      1373 3.07285E+01
 -1      1374 2.97889E+01
 -1      1375 2.83435E+01
 -1      1376 3.04212E+01
 -1      1377 3.15363E+01
 -1      1378 3.26514E+01
 -1      1379 2.76979E+01
 -1      1380 2.82809E+01
 -1      1381 3.10836E+01
 -1      1382 3.21806E+01
 -1      1383 2.99210E+01
 -1      1384 2.99025E+01
 -1      1385 3.44607E+01
 -1      1386 3.65650E+01
 -1      1387 2.92265E+01
 -1      1388 3.26514E+01
 -1      1389 3.44438E+01
 -1      1390 3.65476E+01
 -1      1391 3.00166E+01
 -1      1392 3.24364E+01
 -1      1393 3.06816E+01
 -1      1394 3.44607E+01
 -1      1395 3.24793E+01
 -1      1396 2.81765E+01
 -1      1397 3.09846E+01
 -1      1398 3.72554E+01
 -1      1399 3.24364E+01
 -1      1400 3.56747E+01
 -1      1401 2.80319E+01
 -1      1402 3.38978E+01
 -1      1403 3.16262E+01
 -1      1404 3.65476E+01
 -1      1405 3.66840E+01
 -1      1406 3.21369E+01
 -1      1407 3.07564E+01
 -1      1408 4.08275E+01
 -1      1409 3.14316E+01
 -1      1410 3.35759E+01
 -1      1411 2.65447E+01
 -1      1412 3.35689E+01
 -1      1413 3.08475E+01
 -1      1414 3.51534E+01
 -1      1415 3.08132E+01
 -1      1416 3.08426E+01
 -1      1417 3.84279E+01
 -1      1418 2.88424E+01
 -1      1419 2.83916E+01
 -1      1420 3.57849E+01
 -1      1421 3.16262E+01
 -1      1422 2.96343E+01
 -1      1423 2.55884E+01
 -1      1424 2.81555E+01
 -1      1425 2.97873E+01
 -1      1426 2.79357E+01
 -1      1427 3.13545E+01
 -1      1428 2.79381E+01
 -1      1429 2.79058E+01
 -1      1430 3.48344E+01
 -1      1431 3.30073E+01
 -1      1432 3.76052E+01
 -1      1433 3.66614E+01
 -1      1434 3.43549E+01
 -1      1435 3.85491E+01
 -1      1436 2.90297E+01
 -1      1437 3.12804E+01
 -1      1438 2.91541E+01
 -1      1439 3.00794E+01
 -1      1440 3.13282E+01
 -1      1441 2.83549E+01
 -1      1442 3.35144E+01
 -1      1443 3.55428E+01
 -1      1444 2.81913E+01
 -1      1445 2.69153E+01
 -1      1446 2.81922E+01
 -1      1447 2.81922E+01
 -1      1448 3.44438E+01
 -1      1449 3.49882E+01
 -1      1450 2.96387E+01
 -1      1451 3.12796E+01
 -1      1452 2.79977E+01
 -1      1453 3.54391E+01
 -1      1454 3.65158E+01
 -1      1455 3.56279E+01
 -1      1456 4.05520E+01
 -1      1457 3.65650E+01
 -1      1458 3.86216E+01
 -1      1459 3.81842E+01
 -1      1460 3.13252E+01
 -1      1461 3.51752E+01
 -1      1462 3.14798E+01
 -1      1463 2.88724E+01
 -1      1464 3.02502E+01
 -1      1465 2.67692E+01
 -1      1466 2.78443E+01
 -1      1467 2.96995E+01
 -1      1468 2.96995E+01
 -1      1469 2.85630E+01
 -1      1470 3.02416E+01
 -1      1471 3.03279E+01
 -1      1472 3.01917E+01
 -1      1473 2.83163E+01
 -1      1474 3.75902E+01
 -1      1475 3.19593E+01
 -1      1476 2.83163E+01
 -1      1477 3.54600E+01
 -1      1478 3.13507E+01
 -1      1479 2.95028E+01
 -1      1480 3.30035E+01
 -1      1481 2.90620E+01
 -1      1482 2.98636E+01
 -1      1483 3.24166E+01
 -1      1484 3.03560E+01
 -1      1485 3.24166E+01
 -1      1486 3.03011E+01
 -1      1487 3.04727E+01
 -1      1488 3.75902E+01
 -1      1489 3.54600E+01
 -1      1490 3.34300E+01
 -1      1491 3.77689E+01
 -1      1492 3.51017E+01
 -1      1493 3.05981E+01
 -1      1494 3.05727E+01
 -1      1495 3.25909E+01
 -1      1496 3.24674E+01
 -1      1497 2.88668E+01
 -1      1498 2.94851E+01
 -1      1499 3.01608E+01
 -1      1500 2.73288E+01
 -1      1501 2.60335E+01
 -1      1502 3.09674E+01
 -1      1503 3.06552E+01
 -1      1504 3.63747E+01
 -1      1505 3.24674E+01
 -1      1506 3.02603E+01
 -1      1507 2.54152E+01
 -1      1508 2.77061E+01
 -1      1509 3.09735E+01
 -1      1510 2.81911E+01
 -1      1511 3.54600E+01
 -1      1512 4.06373E+01
 -1      1513 3.65459E+01
 -1      1514 3.59568E+01
 -1      1515 3.71503E+01
 -1      1516 3.73112E+01
 -1      1517 2.82105E+01
 -1      1518 3.17751E+01
 -1      1519 2.14507E+01
 -1      1520 2.69023E+01
 -1      1521 3.13507E+01
 -1      1522 3.47849E+01
 -1      1523 3.67641E+01
 -1      1524 3.67096E+01
 -1      1525 3.38593E+01
 -1      1526 3.47471E+01
 -1      1527 3.34488E+01
 -1      1528 3.74358E+01
 -1      1529 3.58721E+01
 -1      1530 3.63095E+01
 -1      1531 2.94618E+01
 -1      1532 3.45747E+01
 -1      1533 3.19075E+01
 -1      1534 3.46607E+01
 -1      1535 3.37243E+01
 -1      1536 3.79869E+01
 -1      1537 2.76434E+01
 -1      1538 3.23639E+01
 -1      1539 2.90072E+01
 -1      1540 2.82423E+01
 -1      1541 2.82423E+01
 -1      1542 2.93824E+01
 -1      1543 2.88380E+01
 -1      1544 3.05659E+01
 -1      1545 2.89249E+01
 -1      1546 3.09418E+01
 -1      1547 3.07978E+01
 -1      1548 3.04856E+01
 -1      1549 3.30439E+01
 -1      1550 3.04562E+01
 -1      1551 3.16496E+01
 -1      1552 3.47113E+01
 -1      1553 2.85141E+01
 -1      1554 3.12924E+01
 -1      1555 2.96589E+01
 -1      1556 2.96912E+01
 -1      1557 3.01872E+01
 -1      1558 3.27219E+01
 -1      1559 3.03211E+01
 -1      1560 3.21482E+01
 -1      1561 3.43453E+01
 -1      1562 3.52891E+01
 -1      1563 3.63135E+01
 -1      1564 3.21194E+01
 -1      1565 3.13200E+01
 -1      1566 3.06443E+01
 -1      1567 2.63416E+01
 -1      1568 2.76369E+01
 -1      1569 3.46611E+01
 -1      1570 3.66911E+01
 -1      1571 3.66911E+01
 -1      1572 3.44404E+01
 -1      1573 3.27096E+01
 -1      1574 3.27595E+01
 -1      1575 3.30527E+01
 -1      1576 3.21274E+01
 -1      1577 3.51007E+01
 -1      1578 3.05426E+01
 -1      1579 3.27327E+01
 -1      1580 3.27595E+01
 -1      1581 2.78794E+01
 -1      1582 2.68700E+01
 -1      1583 3.07304E+01
 -1      1584 2.97210E+01
 -1      1585 2.73748E+01
 -1      1586 3.00131E+01
 -1      1587 2.63674E+01
 -1      1588 3.15211E+01
 -1      1589 3.30073E+01
 -1      1590 2.89865E+01
 -1      1591 3.04727E+01
 -1      1592 3.01872E+01
 -1      1593 3.24364E+01
 -1      1594 3.27219E+01
 -1      1595 3.05128E+01
 -1      1596 3.01018E+01
 -1      1597 3.20291E+01
 -1      1598 3.16181E+01
 -1      1599 3.14443E+01
 -1      1600 3.19404E+01
 -1      1601 3.14443E+01
 -1      1602 3.19404E+01
 -1      1603 2.78794E+01
 -1      1604 2.81913E+01
 -1      1605 2.69153E+01
 -1      1606 2.99268E+01
 -1      1607 2.86508E+01
 -1      1608 2.97553E+01
 -1      1609 2.79977E+01
 -1      1610 2.87459E+01
 -1      1611 2.96387E+01
 -1      1612 2.73748E+01
 -1      1613 3.00131E+01
 -1      1614 2.87459E+01
 -1      1615 2.89617E+01
 -1      1616 3.04780E+01
 -1      1617 2.85630E+01
 -1      1618 2.75934E+01
 -1      1619 3.05456E+01
 -1      1620 2.95760E+01
 -1      1621 2.35388E+01
 -1      1622 3.61415E+01
 -1      1623 3.39060E+01
 -1      1624 3.52891E+01
 -1      1625 3.30536E+01
 -1      1626 3.18816E+01
 -1      1627 3.01268E+01
 -1      1628 2.94809E+01
 -1      1629 3.03869E+01
 -1      1630 3.32787E+01
 -1      1631 2.90593E+01
 -1      1632 3.59656E+01
 -1      1633 3.24674E+01
 -1      1634 3.24674E+01
 -1      1635 3.02603E+01
 -1      1636 3.71503E+01
 -1      1637 3.30421E+01
 -1      1638 4.12585E+01
 -1      1639 3.71503E+01
 -1      1640 3.93190E+01
 -1      1641 3.42576E+01
 -1      1642 3.37132E+01
 -1      1643 3.50015E+01
 -1      1644 3.05512E+01
 -1      1645 3.33158E+01
 -1      1646 2.99268E+01
 -1      1647 2.99268E+01
 -1      1648 2.92545E+01
 -1      1649 2.86508E+01
 -1      1650 2.78443E+01
 -1      1651 2.81640E+01
 -1      1652 2.88724E+01
 -1      1653 3.27595E+01
 -1      1654 3.27595E+01
 -1      1655 3.10582E+01
 -1      1656 3.19075E+01
 -1      1657 3.46607E+01
 -1      1658 3.13346E+01
 -1      1659 3.08426E+01
 -1      1660 3.10122E+01
 -1      1661 3.08132E+01
 -1      1662 3.59849E+01
 -1      1663 2.94136E+01
 -1      1664 3.59849E+01
 -1      1665 2.94136E+01
 -1      1666 3.58836E+01
 -1      1667 3.32032E+01
 -1      1668 3.84561E+01
 -1      1669 3.57756E+01
 -1      1670 3.00840E+01
 -1      1671 2.98521E+01
 -1      1672 3.01663E+01
 -1      1673 2.99343E+01
 -1      1674 2.99162E+01
 -1      1675 3.03159E+01
 -1      1676 3.18463E+01
 -1      1677 3.31587E+01
 -1      1678 3.26894E+01
 -1      1679 2.91019E+01
 -1      1680 3.26514E+01
 -1      1681 2.81913E+01
 -1      1682 3.25230E+01
 -1      1683 3.19347E+01
 -1      1684 3.22334E+01
 -1      1685 3.08377E+01
 -1      1686 3.20000E+01
 -1      1687 3.87459E+01
 -1      1688 3.25731E+01
 -1      1689 3.93190E+01
 -1      1690 2.82423E+01
 -1      1691 2.76979E+01
 -1      1692 2.65578E+01
 -1      1693 3.07804E+01
 -1      1694 2.94864E+01
 -1      1695 3.01047E+01
 -1      1696 3.09197E+01
 -1      1697 3.09197E+01
 -1      1698 3.02502E+01
 -1      1699 3.72554E+01
 -1      1700 3.47849E+01
 -1      1701 3.67096E+01
 -1      1702 3.02416E+01
 -1      1703 3.02416E+01
 -1      1704 2.90795E+01
 -1      1705 2.90795E+01
 -1      1706 3.00840E+01
 -1      1707 3.03159E+01
 -1      1708 2.99268E+01
 -1      1709 3.37243E+01
 -1      1710 3.79869E+01
 -1      1711 3.79869E+01
 -1      1712 2.81367E+01
 -1      1713 3.03184E+01
 -1      1714 2.95648E+01
 -1      1715 2.91219E+01
 -1      1716 2.81043E+01
 -1      1717 3.27941E+01
 -1      1718 3.66614E+01
 -1      1719 3.43453E+01
 -1      1720 2.95328E+01
 -1      1721 3.00166E+01
 -1      1722 2.90620E+01
 -1      1723 3.10284E+01
 -1      1724 2.95392E+01
 -1      1725 3.12924E+01
 -1      1726 2.78736E+01
 -1      1727 3.47113E+01
 -1      1728 3.12924E+01
 -1      1729 3.24211E+01
 -1      1730 3.24211E+01
 -1      1731 3.24211E+01
 -1      1732 3.24211E+01
 -1      1733 3.07978E+01
 -1      1734 3.10936E+01
 -1      1735 2.59844E+01
 -1      1736 2.53514E+01
 -1      1737 3.09846E+01
 -1      1738 3.36010E+01
 -1      1739 3.20099E+01
 -1      1740 3.32810E+01
 -1      1741 3.05659E+01
 -1      1742 3.16608E+01
 -1      1743 2.81112E+01
 -1      1744 3.19404E+01
 -1      1745 4.12585E+01
 -1      1746 3.59568E+01
 -1      1747 3.63139E+01
 -1      1748 3.40780E+01
 -1      1749 3.43753E+01
 -1      1750 3.34488E+01
 -1      1751 3.74358E+01
 -1      1752 3.34488E+01
 -1      1753 2.86755E+01
 -1      1754 3.26626E+01
 -1      1755 3.74358E+01
 -1      1756 3.53658E+01
 -1      1757 3.38306E+01
 -1      1758 3.30627E+01
 -1      1759 3.46133E+01
 -1      1760 3.30627E+01
 -1      1761 2.96589E+01
 -1      1762 2.79058E+01
 -1      1763 2.96912E+01
 -1      1764 3.01872E+01
 -1      1765 2.79679E+01
 -1      1766 2.89853E+01
 -1      1767 2.79572E+01
 -1      1768 3.53312E+01
 -1      1769 3.45933E+01
 -1      1770 3.39752E+01
 -1      1771 3.53658E+01
 -1      1772 2.95414E+01
 -1      1773 3.56669E+01
 -1      1774 3.24364E+01
 -1      1775 3.24364E+01
 -1      1776 3.10237E+01
 -1      1777 3.02701E+01
 -1      1778 3.43753E+01
 -1      1779 3.46725E+01
 -1      1780 2.79977E+01
 -1      1781 3.13545E+01
 -1      1782 3.20291E+01
 -1      1783 3.28815E+01
 -1      1784 3.39060E+01
 -1      1785 3.50307E+01
 -1      1786 3.53417E+01
 -1      1787 3.18954E+01
 -1      1788 2.83157E+01
 -1      1789 3.43453E+01
 -1      1790 3.76052E+01
 -1      1791 3.66614E+01
 -1      1792 3.52983E+01
 -1      1793 3.61415E+01
 -1      1794 2.66365E+01
 -1      1795 2.57521E+01
 -1      1796 3.12891E+01
 -1      1797 3.06912E+01
 -1      1798 3.31066E+01
 -1      1799 3.19473E+01
 -1      1800 3.46151E+01
 -1      1801 3.44605E+01
 -1      1802 3.51752E+01
 -1      1803 3.37930E+01
 -1      1804 3.77661E+01
 -1      1805 3.53658E+01
 -1      1806 3.13545E+01
 -1      1807 2.60041E+01
 -1      1808 3.79222E+01
 -1      1809 3.79222E+01
 -1      1810 3.60994E+01
 -1      1811 3.60994E+01
 -1      1812 3.16704E+01
 -1      1813 3.47113E+01
 -1      1814 3.61737E+01
 -1      1815 3.56279E+01
 -1      1816 3.63626E+01
 -1      1817 3.14798E+01
 -1      1818 2.92265E+01
 -1      1819 3.07564E+01
 -1      1820 2.75537E+01
 -1      1821 3.14692E+01
 -1      1822 3.04516E+01
 -1      1823 3.00166E+01
 -1      1824 2.95328E+01
 -1      1825 3.67641E+01
 -1      1826 3.67641E+01
 -1      1827 3.53658E+01
 -1      1828 3.09735E+01
 -1      1829 3.30035E+01
 -1      1830 3.34300E+01
 -1      1831 3.54600E+01
 -1      1832 2.88970E+01
 -1      1833 3.00794E+01
 -1      1834 2.88970E+01
 -1      1835 3.00794E+01
 -1      1836 3.84561E+01
 -1      1837 3.67703E+01
 -1      1838 3.85854E+01
 -1      1839 3.78954E+01
 -1      1840 2.94136E+01
 -1      1841 3.55395E+01
 -1      1842 2.99343E+01
 -1      1843 3.05470E+01
 -1      1844 3.57197E+01
 -1      1845 3.94519E+01
 -1      1846 2.80319E+01
 -1      1847 3.18816E+01
 -1      1848 2.96995E+01
 -1      1849 2.89715E+01
 -1      1850 3.68133E+01
 -1      1851 2.93472E+01
 -1      1852 2.88724E+01
 -1      1853 3.56581E+01
 -1      1854 2.98364E+01
 -1      1855 3.91680E+01
 -1      1856 3.33462E+01
 -1      1857 3.09674E+01
 -1      1858 3.12796E+01
 -1      1859 3.06552E+01
 -1      1860 3.09674E+01
 -1      1861 3.12796E+01
 -1      1862 2.89715E+01
 -1      1863 2.89268E+01
 -1      1864 3.09671E+01
 -1      1865 3.48344E+01
 -1      1866 2.37803E+01
 -1      1867 2.84098E+01
 -1      1868 2.51990E+01
 -1      1869 2.98285E+01
 -1      1870 3.94519E+01
 -1      1871 3.23823E+01
 -1      1872 3.00131E+01
 -1      1873 3.06701E+01
 -1      1874 2.96995E+01
 -1      1875 2.87288E+01
 -1      1876 3.47239E+01
 -1      1877 3.16514E+01
 -1      1878 3.16496E+01
 -1      1879 3.30439E+01
 -1      1880 3.43332E+01
 -1      1881 3.48932E+01
 -1      1882 3.67096E+01
 -1      1883 3.24705E+01
 -1      1884 3.06912E+01
 -1      1885 3.15363E+01
 -1      1886 3.04212E+01
 -1      1887 3.03560E+01
 -1      1888 3.26118E+01
 -1      1889 3.26514E+01
 -1      1890 3.48344E+01
 -1      1891 3.30073E+01
 -1      1892 3.66614E+01
 -1      1893 3.72554E+01
 -1      1894 3.43549E+01
 -1      1895 3.07804E+01
 -1      1896 2.70850E+01
 -1      1897 2.78609E+01
 -1      1898 2.96046E+01
 -1      1899 3.70622E+01
 -1      1900 3.94519E+01
 -1      1901 3.70622E+01
 -1      1902 3.10053E+01
 -1      1903 2.94271E+01
 -1      1904 2.87518E+01
 -1      1905 3.03667E+01
 -1      1906 2.90225E+01
 -1      1907 2.73064E+01
 -1      1908 3.89326E+01
 -1      1909 4.13004E+01
 -1      1910 3.89326E+01
 -1      1911 3.06701E+01
 -1      1912 3.04856E+01
 -1      1913 3.08426E+01
 -1      1914 3.49337E+01
 -1      1915 3.37026E+01
 -1      1916 3.49337E+01
 -1      1917 2.64093E+01
 -1      1918 3.18487E+01
 -1      1919 3.10582E+01
 -1      1920 3.03279E+01
 -1      1921 3.23639E+01
 -1      1922 2.90072E+01
 -1      1923 3.16316E+01
 -1      1924 3.16704E+01
 -1      1925 3.02502E+01
 -1      1926 3.06552E+01
 -1      1927 3.51007E+01
 -1      1928 3.21274E+01
 -1      1929 3.51007E+01
 -1      1930 3.06887E+01
 -1      1931 3.18507E+01
 -1      1932 3.12796E+01
 -1      1933 3.06701E+01
 -1      1934 3.30439E+01
 -1      1935 3.30457E+01
 -1      1936 3.30457E+01
 -1      1937 2.80319E+01
 -1      1938 3.07564E+01
 -1      1939 3.88214E+01
 -1      1940 3.07673E+01
 -1      1941 3.07673E+01
 -1      1942 2.78736E+01
 -1      1943 2.79058E+01
 -1      1944 2.79381E+01
 -1      1945 3.43549E+01
 -1      1946 3.30457E+01
 -1      1947 3.65476E+01
 -1      1948 3.09418E+01
 -1      1949 2.96343E+01
 -1      1950 4.14088E+01
 -1      1951 1.76958E+01
 -1      1952 2.94703E+01
 -1      1953 3.42766E+01
 -1      1954 3.20002E+01
 -1      1955 3.51164E+01
 -1      1956 4.05520E+01
 -1      1957 3.60994E+01
 -1      1958 3.67096E+01
 -1      1959 3.85259E+01
 -1      1960 3.85259E+01
 -1      1961 2.99162E+01
 -1      1962 3.03981E+01
 -1      1963 3.48161E+01
 -1      1964 3.54600E+01
 -1      1965 3.57686E+01
 -1      1966 3.26514E+01
 -1      1967 3.10084E+01
 -1      1968 2.87101E+01
 -1      1969 2.92265E+01
 -1      1970 3.27595E+01
 -1      1971 3.30073E+01
 -1      1972 2.87101E+01
 -1      1973 3.09418E+01
 -1      1974 2.89249E+01
 -1      1975 3.05659E+01
 -1      1976 3.54600E+01
 -1      1977 3.18301E+01
 -1      1978 3.78954E+01
 -1      1979 3.59325E+01
 -1      1980 3.56081E+01
 -1      1981 3.66108E+01
 -1      1982 3.85491E+01
 -1      1983 3.33601E+01
 -1      1984 3.50206E+01
 -1      1985 3.17664E+01
 -1      1986 3.37675E+01
 -1      1987 3.83106E+01
 -1      1988 3.63095E+01
 -1      1989 3.06701E+01
 -1      1990 3.05456E+01
 -1      1991 3.94519E+01
 -1      1992 2.98018E+01
 -1      1993 2.65578E+01
 -1      1994 2.48141E+01
 -1      1995 3.00166E+01
 -1      1996 2.97553E+01
 -1      1997 3.61737E+01
 -1      1998 3.58585E+01
 -1      1999 2.79381E+01
 -1      2000 2.15300E+01
 -1      2001 1.49276E+01
 -1      2002 2.36579E+01
 -1      2003 2.39512E+01
 -1      2004 2.18285E+01
 -1      2005 2.53820E+01
 -1      2006 2.32593E+01
 -1      2007 3.57788E+01
 -1      2008 4.13004E+01
 -1      2009 3.81842E+01
 -1      2010 3.78590E+01
 -1      2011 3.03159E+01
 -1      2012 3.57134E+01
 -1      2013 3.63626E+01
 -1      2014 3.55138E+01
 -1      2015 3.06816E+01
 -1      2016 3.30073E+01
 -1      2017 2.81922E+01
 -1      2018 2.92542E+01
 -1      2019 3.01978E+01
 -1      2020 3.32787E+01
 -1      2021 3.27327E+01
 -1      2022 3.03011E+01
 -1      2023 3.51287E+01
 -1      2024 3.40845E+01
 -1      2025 3.75852E+01
 -1      2026 3.47792E+01
 -1      2027 3.38593E+01
 -1      2028 3.66614E+01
 -1      2029 3.52211E+01
 -1      2030 3.50678E+01
 -1      2031 3.66690E+01
 -1      2032 3.65158E+01
 -1      2033 3.85259E+01
 -1      2034 3.07671E+01
 -1      2035 1.62720E+01
 -1      2036 1.82639E+01
 -1      2037 3.97205E+01
 -1      2038 3.75902E+01
 -1      2039 3.04466E+01
 -1      2040 4.14088E+01
 -1      2041 4.15728E+01
 -1      2042 4.14088E+01
 -1      2043 4.15728E+01
 -1      2044 2.52776E+01
 -1      2045 4.03704E+01
 -1      2046 3.10314E+01
 -1      2047 2.96589E+01
 -1      2048 2.90593E+01
 -1      2049 2.82443E+01
 -1      2050 2.16796E+01
 -1      2051 3.16262E+01
 -1      2052 3.45747E+01
 -1      2053 3.40018E+01
 -1      2054 3.43686E+01
 -1      2055 4.06594E+01
 -1      2056 4.06594E+01
 -1      2057 3.69958E+01
 -1      2058 3.33521E+01
 -1      2059 3.48822E+01
 -1      2060 3.81842E+01
 -1      2061 3.25099E+01
 -1      2062 3.58721E+01
 -1      2063 2.82898E+01
 -1      2064 3.14798E+01
 -1      2065 4.03704E+01
 -1      2066 4.15728E+01
 -1      2067 3.77689E+01
 -1      2068 3.47113E+01
 -1      2069 3.04516E+01
 -1      2070 2.81043E+01
 -1      2071 3.12796E+01
 -1      2072 3.66840E+01
 -1      2073 3.66840E+01
 -1      2074 3.21369E+01
 -1      2075 3.72554E+01
 -1      2076 3.27595E+01
 -1      2077 3.34945E+01
 -1      2078 2.95750E+01
 -1      2079 3.04212E+01
 -1      2080 3.04856E+01
 -1      2081 3.07978E+01
 -1      2082 2.79357E+01
 -1      2083 3.28290E+01
 -1      2084 3.02411E+01
 -1      2085 3.02411E+01
 -1      2086 2.80233E+01
 -1      2087 3.85491E+01
 -1      2088 3.85491E+01
 -1      2089 3.76052E+01
 -1      2090 2.80977E+01
 -1      2091 3.18546E+01
 -1      2092 2.90811E+01
 -1      2093 4.02063E+01
 -1      2094 3.97205E+01
 -1      2095 3.88214E+01
 -1      2096 3.74358E+01
 -1      2097 3.74358E+01
 -1      2098 3.43402E+01
 -1      2099 3.31088E+01
 -1      2100 3.30627E+01
 -1      2101 3.04212E+01
 -1      2102 2.78443E+01
 -1      2103 3.48781E+01
 -1      2104 3.71290E+01
 -1      2105 3.51986E+01
 -1      2106 3.97205E+01
 -1      2107 2.97685E+01
 -1      2108 2.70766E+01
 -1      2109 2.83190E+01
 -1      2110 2.87518E+01
 -1      2111 2.92582E+01
 -1      2112 3.05981E+01
 -1      2113 3.16111E+01
 -1      2114 3.09846E+01
 -1      2115 3.32992E+01
 -1      2116 3.51684E+01
 -1      2117 3.10582E+01
 -1      2118 3.40670E+01
 -1      2119 3.73632E+01
 -1      2120 3.97155E+01
 -1      2121 3.66840E+01
 -1      2122 3.57849E+01
 -1      2123 3.83106E+01
 -1      2124 3.37723E+01
 -1      2125 3.45939E+01
 -1      2126 3.26529E+01
 -1      2127 3.06277E+01
 -1      2128 3.31896E+01
 -1      2129 3.18074E+01
 -1      2130 2.97714E+01
 -1      2131 2.97714E+01
 -1      2132 2.79021E+01
 -1      2133 3.73632E+01
 -1      2134 3.44607E+01
 -1      2135 3.43686E+01
 -1      2136 3.97105E+01
 -1      2137 2.95807E+01
 -1      2138 3.07478E+01
 -1      2139 3.34809E+01
 -1      2140 3.44607E+01
 -1      2141 3.46490E+01
 -1      2142 3.46490E+01
 -1      2143 4.14088E+01
 -1      2144 3.04212E+01
 -1      2145 3.78590E+01
 -1      2146 3.78590E+01
 -1      2147 3.63139E+01
 -1      2148 4.06540E+01
 -1      2149 4.12585E+01
 -1      2150 2.69663E+01
 -1      2151 2.82423E+01
 -1      2152 3.44607E+01
 -1      2153 3.26332E+01
 -1      2154 3.21671E+01
 -1      2155 3.45747E+01
 -1      2156 2.89865E+01
 -1      2157 3.24805E+01
 -1      2158 3.66690E+01
 -1      2159 3.12885E+01
 -1      2160 3.50206E+01
 -1      2161 3.09030E+01
 -1      2162 3.05426E+01
 -1      2163 3.36010E+01
 -1      2164 3.14518E+01
 -1      2165 1.84921E+01
 -1      2166 2.75245E+01
 -1      2167 2.67692E+01
 -1      2168 3.20860E+01
 -1      2169 3.10046E+01
 -1      2170 3.65476E+01
 -1      2171 3.09418E+01
 -1      2172 3.27486E+01
 -1      2173 3.65476E+01
 -1      2174 3.65476E+01
 -1      2175 4.06540E+01
 -1      2176 3.46725E+01
 -1      2177 3.02497E+01
 -1      2178 3.44407E+01
 -1      2179 3.66911E+01
 -1      2180 3.75902E+01
 -1      2181 3.56240E+01
 -1      2182 3.70087E+01
 -1      2183 3.11133E+01
 -1      2184 3.07615E+01
 -1      2185 3.04147E+01
 -1      2186 3.03831E+01
 -1      2187 3.37026E+01
 -1      2188 3.14000E+01
 -1      2189 3.14462E+01
 -1      2190 3.97155E+01
 -1      2191 3.97105E+01
 -1      2192 3.59568E+01
 -1      2193 3.03279E+01
 -1      2194 3.17664E+01
 -1      2195 3.04415E+01
 -1      2196 3.53417E+01
 -1      2197 3.85491E+01
 -1      2198 3.31088E+01
 -1      2199 3.48360E+01
 -1      2200 3.38306E+01
 -1      2201 2.98357E+01
 -1      2202 3.27327E+01
 -1      2203 3.30527E+01
 -1      2204 3.32796E+01
 -1      2205 3.34809E+01
 -1      2206 3.73628E+01
 -1      2207 4.06540E+01
 -1      2208 4.06540E+01
 -1      2209 3.32307E+01
 -1      2210 3.13282E+01
 -1      2211 3.43686E+01
 -1      2212 3.42766E+01
 -1      2213 3.51017E+01
 -1      2214 3.13693E+01
 -1      2215 2.68736E+01
 -1      2216 3.29742E+01
 -1      2217 3.10046E+01
 -1      2218 3.37243E+01
 -1      2219 3.46133E+01
 -1      2220 3.46133E+01
 -1      2221 3.43402E+01
 -1      2222 3.46133E+01
 -1      2223 3.43402E+01
 -1      2224 3.43402E+01
 -1      2225 3.05426E+01
 -1      2226 3.26175E+01
 -1      2227 2.96325E+01
 -1      2228 3.36475E+01
 -1      2229 3.36475E+01
 -1      2230 3.17807E+01
 -1      2231 1.96877E+01
 -1      2232 3.77689E+01
 -1      2233 2.93510E+01
 -1      2234 3.20291E+01
 -1      2235 3.79869E+01
 -1      2236 3.79869E+01
 -1      2237 3.62683E+01
 -1      2238 4.05309E+01
 -1      2239 4.33715E+01
 -1      2240 3.39180E+01
 -1      2241 4.06540E+01
 -1      2242 3.76363E+01
 -1      2243 3.48360E+01
 -1      2244 3.07251E+01
 -1      2245 3.43402E+01
 -1      2246 3.40670E+01
 -1      2247 3.03904E+01
 -1      2248 3.48360E+01
 -1      2249 3.50587E+01
 -1      2250 3.83106E+01
 -1      2251 3.44605E+01
 -1      2252 3.57094E+01
 -1      2253 3.10009E+01
 -1      2254 3.22552E+01
 -1      2255 2.82423E+01
 -1      2256 3.55138E+01
 -1      2257 3.13507E+01
 -1      2258 2.69023E+01
 -1      2259 2.73817E+01
 -1      2260 3.18301E+01
 -1      2261 3.59325E+01
 -1      2262 3.16262E+01
 -1      2263 3.10019E+01
 -1      2264 3.13507E+01
 -1      2265 2.73288E+01
 -1      2266 3.53395E+01
 -1      2267 3.26175E+01
 -1      2268 2.90297E+01
 -1      2269 3.00794E+01
 -1      2270 3.25115E+01
 -1      2271 3.51007E+01
 -1      2272 3.51007E+01
 -1      2273 3.32796E+01
 -1      2274 3.32810E+01
 -1      2275 4.10783E+01
 -1      2276 4.10783E+01
 -1      2277 3.58328E+01
 -1      2278 3.19396E+01
 -1      2279 3.19396E+01
 -1      2280 2.76369E+01
 -1      2281 3.73112E+01
 -1      2282 3.46607E+01
 -1      2283 3.37243E+01
 -1      2284 3.65650E+01
 -1      2285 4.36682E+01
 -1      2286 4.33715E+01
 -1      2287 4.36682E+01
 -1      2288 3.91759E+01
 -1      2289 3.78841E+01
 -1      2290 2.95230E+01
 -1      2291 4.09719E+01
 -1      2292 4.10783E+01
 -1      2293 3.09585E+01
 -1      2294 3.58666E+01
 -1      2295 2.49621E+01
 -1      2296 3.29742E+01
 -1      2297 3.22800E+01
 -1      2298 3.30479E+01
 -1      2299 3.23261E+01
 -1      2300 3.23261E+01
 -1      2301 3.24674E+01
 -1      2302 3.21655E+01
 -1      2303 2.73064E+01
 -1      2304 3.26954E+01
 -1      2305 2.28552E+01
 -1      2306 3.07615E+01
 -1      2307 3.10380E+01
 -1      2308 3.07930E+01
 -1      2309 3.03078E+01
 -1      2310 3.01047E+01
 -1      2311 3.14000E+01
 -1      2312 3.02162E+01
 -1      2313 2.93337E+01
 -1      2314 3.05106E+01
 -1      2315 3.03186E+01
 -1      2316 3.03186E+01
 -1      2317 3.08816E+01
 -1      2318 3.06896E+01
 -1      2319 3.43402E+01
 -1      2320 3.08816E+01
 -1      2321 3.08816E+01
 -1      2322 3.12527E+01
 -1      2323 3.46611E+01
 -1      2324 4.06373E+01
 -1      2325 4.34780E+01
 -1      2326 4.32877E+01
 -1      2327 4.06373E+01
 -1      2328 3.05456E+01
 -1      2329 3.21750E+01
 -1      2330 3.14196E+01
 -1      2331 3.03471E+01
 -1      2332 3.07349E+01
 -1      2333 3.07299E+01
 -1      2334 3.07930E+01
 -1      2335 3.07930E+01
 -1      2336 3.07615E+01
 -1      2337 2.50816E+01
 -1      2338 2.93337E+01
 -1      2339 3.12678E+01
 -1      2340 3.06537E+01
 -1      2341 3.26976E+01
 -1      2342 3.24245E+01
 -1      2343 3.11082E+01
 -1      2344 3.30479E+01
 -1      2345 4.31813E+01
 -1      2346 4.32877E+01
 -1      2347 3.10065E+01
 -1      2348 3.12830E+01
 -1      2349 3.08968E+01
 -1      2350 3.08968E+01
 -1      2351 3.12830E+01
 -1      2352 3.12678E+01
 -1      2353 3.21655E+01
 -1      2354 4.10783E+01
 -1      2355 4.36682E+01
 -1      2356 3.06537E+01
 -1      2357 3.46133E+01
 -1      2358 3.43402E+01
 -1      2359 3.46133E+01
 -1      2360 3.10229E+01
 -1      2361 3.04598E+01
 -1      2362 3.06518E+01
 -1      2363 3.06518E+01
 -1      2364 3.08968E+01
 -1      2365 3.08816E+01
 -1      2366 3.12527E+01
 -1      2367 4.32877E+01
 -1      2368 3.12678E+01
 -1      2369 3.12830E+01
 -1      2370 3.30479E+01
 -1      2371 3.12527E+01
 -1      2372 3.12678E+01
 -1      2373 3.07048E+01
 -1      2374 3.08968E+01
 -3
 9999
